VARIABLES=
 x y z nomin_den nomin_voidr fabric_xx fabric_yy fabric_zz fabric_xy fabric_xz fabric_yz sigma_xx sigma_yy sigma_zz sigma_xy sigma_xz sigma_yz sigmaDot_xx sigmaDot_yy sigmaDot_zz sigmaDot_xy sigmaDot_xz sigmaDot_yz Oldro_xx Oldro_xy Oldro_xz Oldro_yx Oldro_yy Oldro_yz Oldro_zx Oldro_zy Oldro_zz Trues_xx Trues_xy Trues_xz Trues_yx Trues_yy Trues_yz Trues_zx Trues_zy Trues_zz F_xX F_xY F_xZ F_yX F_yY F_yZ F_zX F_zY F_zZ R_xX R_xY R_xZ R_yX R_yY R_yZ R_zX R_zY R_zZ U_xX U_yY U_zZ U_xY U_xZ U_yZ Green_xx Green_yy Green_zz Green_xy Green_xz Green_yz Green_vol Green_shr Euler_xx Euler_yy Euler_zz Euler_xy Euler_xz Euler_yz Euler_vol Euler_shr l_xx l_xy l_xz l_yx l_yy l_yz l_zx l_zy l_zz d_xx d_yy d_zz d_xy d_xz d_yz w_xy w_xz w_yz norm_sigma norm_sigmaDot norm_Oldro norm_Trues norm_F norm_U norm_l norm_d norm_w p q sigma_1 sigma_2 sigma_3 sigma_1_v1 sigma_1_v2 sigma_1_v3 sigma_2_v1 sigma_2_v2 sigma_2_v3 sigma_3_v1 sigma_3_v2 sigma_3_v3 sigmaDot_1 sigmaDot_2 sigmaDot_3 sigmaDot_1_v1 sigmaDot_1_v2 sigmaDot_1_v3 sigmaDot_2_v1 sigmaDot_2_v2 sigmaDot_2_v3 sigmaDot_3_v1 sigmaDot_3_v2 sigmaDot_3_v3 d_1 d_2 d_3 d_1_v1 d_1_v2 d_1_v3 d_2_v1 d_2_v2 d_2_v3 d_3_v1 d_3_v2 d_3_v3
ZONE T="stress" N=27, E=8, DATAPACKING=BLOCK, VARLOCATION=([4,5,6,7,8,9,10,11,12,13,14,15,16,17,18,19,20,21,22,23,24,25,26,27,28,29,30,31,32,33,34,35,36,37,38,39,40,41,42,43,44,45,46,47,48,49,50,51,52,53,54,55,56,57,58,59,60,61,62,63,64,65,66,67,68,69,70,71,72,73,74,75,76,77,78,79,80,81,82,83,84,85,86,87,88,89,90,91,92,93,94,95,96,97,98,99,100,101,102,103,104,105,106,107,108,109,110,111,112,113,114,115,116,117,118,119,120,121,122,123,124,125,126,127,128,129,130,131,132,133,134,135,136,137,138,139,140,141,142,143,144,145,146]=CELLCENTERED), ZONETYPE=FEBRICK, STRANDID=4, SOLUTIONTIME=11
   1.986235e-07   1.986235e-07   1.986235e-07   1.986235e-07   1.986235e-07   1.986235e-07   1.986235e-07   1.986235e-07   1.986235e-07   9.991964e-03   9.991964e-03   9.991964e-03   9.991964e-03   9.991964e-03   9.991964e-03   9.991964e-03   9.991964e-03   9.991964e-03   1.998373e-02   1.998373e-02   1.998373e-02   1.998373e-02   1.998373e-02   1.998373e-02   1.998373e-02   1.998373e-02   1.998373e-02
   8.533514e-06   8.533514e-06   8.533514e-06   1.000314e-02   1.000314e-02   1.000314e-02   1.999774e-02   1.999774e-02   1.999774e-02   8.533514e-06   8.533514e-06   8.533514e-06   1.000314e-02   1.000314e-02   1.000314e-02   1.999774e-02   1.999774e-02   1.999774e-02   8.533514e-06   8.533514e-06   8.533514e-06   1.000314e-02   1.000314e-02   1.000314e-02   1.999774e-02   1.999774e-02   1.999774e-02
   1.039214e-06   9.227619e-03   1.845420e-02   1.039214e-06   9.227619e-03   1.845420e-02   1.039214e-06   9.227619e-03   1.845420e-02   1.039214e-06   9.227619e-03   1.845420e-02   1.039214e-06   9.227619e-03   1.845420e-02   1.039214e-06   9.227619e-03   1.845420e-02   1.039214e-06   9.227619e-03   1.845420e-02   1.039214e-06   9.227619e-03   1.845420e-02   1.039214e-06   9.227619e-03   1.845420e-02
   1.710712e+03   1.444947e+03   1.403988e+03   1.549763e+03   1.647340e+03   1.402069e+03   1.488328e+03   1.350979e+03
   5.490625e-01   8.339773e-01   8.874799e-01   7.099384e-01   6.086540e-01   8.900644e-01   7.805209e-01   9.615407e-01
   3.812504e-01   2.670190e-01   2.944774e-01   2.882272e-01   2.937496e-01   2.981840e-01   2.365636e-01   3.896384e-01
   2.834926e-01   4.317786e-01   2.900755e-01   3.047037e-01   2.836344e-01   3.790383e-01   3.794327e-01   2.805443e-01
   3.352570e-01   3.012024e-01   4.154471e-01   4.070691e-01   4.226159e-01   3.227777e-01   3.840037e-01   3.298173e-01
   3.003026e-02  -3.945833e-02  -4.287948e-02  -2.773579e-02  -2.572003e-02  -2.229738e-02   2.265351e-02  -1.316008e-01
   2.814929e-02   1.769712e-02  -2.645507e-02  -3.125182e-02   3.809172e-03   4.378463e-02  -7.184868e-02   8.668535e-03
   3.019211e-02  -1.601723e-02   4.955068e-03   3.738575e-02  -7.880775e-03   2.780888e-02   4.590930e-03  -5.942187e-03
  -2.813958e+03  -2.198224e+03  -1.967134e+03  -2.105067e+03  -1.760137e+03  -3.130710e+03  -3.074292e+03  -7.913559e+02
  -2.348822e+03  -1.870581e+03  -2.505378e+03  -2.698956e+03  -2.111608e+03  -3.551879e+03  -3.670093e+03  -5.246445e+02
  -4.132915e+03  -2.316749e+03  -4.052623e+03  -4.925096e+03  -3.660923e+03  -6.086013e+03  -3.563939e+03  -1.160547e+03
  -1.228894e+02   1.616744e+02   6.235319e+02   5.887621e+02   1.199292e+02   8.726571e+02  -8.933197e+02   3.898906e+02
  -3.664960e+02  -6.313098e+02   2.824835e+02   3.668507e+02  -3.031197e+02  -1.211903e+03   1.528328e+03  -5.821546e+01
  -4.399052e+02   7.922398e+01   7.052785e+02  -1.052623e+03   1.025068e+02  -5.378465e+02   5.793740e+02   1.782550e+02
   1.992808e+06  -1.819920e+07  -4.185191e+06   1.226010e+07  -9.607509e+05  -5.923113e+06   6.383625e+06  -5.878749e+05
  -3.026009e+06   1.663045e+06   3.310815e+06   6.144951e+06   7.830068e+05   7.264187e+06   1.964159e+06   2.451260e+06
  -1.086473e+05   2.616203e+06   3.063803e+06   6.009021e+07   3.835489e+06   3.488523e+07   4.065116e+06  -2.604817e+06
  -1.928275e+05   3.749375e+06   6.451870e+05   4.567494e+06  -2.704948e+06   8.746323e+06   9.044888e+06  -2.102416e+06
   3.761506e+06  -4.260115e+05   5.567245e+06   1.914431e+07   4.332641e+05  -7.154727e+06  -3.893174e+06  -1.878905e+05
  -7.380828e+06   7.434982e+06  -2.425156e+06   5.950141e+05  -6.921480e+05   7.444960e+06   2.377896e+06  -3.722273e+06
   1.993689e+06  -1.819897e+07  -4.183885e+06   1.225969e+07  -9.605567e+05  -5.923085e+06   6.382472e+06  -5.872690e+05
  -5.759461e+05   2.564785e+06   6.193127e+05   2.498501e+06   1.358295e+05   1.437399e+06   9.188075e+06   7.666309e+05
   1.187127e+07  -2.743529e+06   5.920160e+06   3.629164e+07   5.786558e+04  -1.834621e+07  -1.088111e+07   5.645888e+05
   1.910868e+05   4.935106e+06   6.704133e+05   6.635549e+06  -5.544951e+06   1.605630e+07   8.898081e+06  -4.971611e+06
  -3.025906e+06   1.663007e+06   3.309632e+06   6.142986e+06   7.841351e+05   7.263295e+06   1.963045e+06   2.450916e+06
  -1.339681e+07   4.776851e+06  -4.473143e+06   2.901898e+06  -9.493746e+04   2.643283e+07  -5.659964e+06  -5.448387e+06
  -4.350915e+06   1.896510e+06   5.215496e+06   1.992426e+06   8.095376e+05   4.037663e+06   3.096360e+06  -9.405442e+05
  -1.366284e+06   1.008850e+07  -3.764770e+05  -1.719579e+06  -1.289115e+06  -1.154849e+07   1.041791e+07  -1.995860e+06
  -1.114836e+05   2.620306e+06   3.062364e+06   6.008568e+07   3.835220e+06   3.487907e+07   4.062943e+06  -2.603048e+06
   1.993984e+06  -1.820045e+07  -4.183734e+06   1.226135e+07  -9.610494e+05  -5.921355e+06   6.384028e+06  -5.879093e+05
  -5.759325e+05   2.564934e+06   6.192675e+05   2.497949e+06   1.358489e+05   1.436961e+06   9.188521e+06   7.669476e+05
   1.187130e+07  -2.743990e+06   5.920134e+06   3.629121e+07   5.778375e+04  -1.834547e+07  -1.088189e+07   5.645232e+05
   1.910989e+05   4.935175e+06   6.703625e+05   6.635174e+06  -5.544903e+06   1.605578e+07   8.898539e+06  -4.971296e+06
  -3.025659e+06   1.661745e+06   3.309824e+06   6.145111e+06   7.835441e+05   7.265257e+06   1.964902e+06   2.450492e+06
  -1.339675e+07   4.776907e+06  -4.473194e+06   2.902834e+06  -9.492240e+04   2.643300e+07  -5.660232e+06  -5.448236e+06
  -4.350877e+06   1.896119e+06   5.215478e+06   1.992285e+06   8.094498e+05   4.038256e+06   3.095600e+06  -9.405728e+05
  -1.366245e+06   1.008855e+07  -3.765338e+05  -1.718857e+06  -1.289072e+06  -1.154807e+07   1.041760e+07  -1.995722e+06
  -1.110495e+05   2.618743e+06   3.062676e+06   6.008956e+07   3.834196e+06   3.488243e+07   4.064747e+06  -2.603987e+06
   9.929731e-01   9.471713e-01   1.024171e+00   1.003090e+00   1.014577e+00   1.009841e+00   9.941878e-01   1.010586e+00
   1.066418e-02   9.680998e-04  -3.614695e-03   1.874367e-02   1.230473e-02  -4.795043e-03  -1.009189e-02  -4.300701e-03
  -1.283439e-02  -1.087815e-01   7.379346e-03  -4.013464e-03   7.240308e-04  -2.384458e-03  -2.400694e-04  -1.817034e-02
   6.750838e-03   2.948812e-02   8.719778e-03   8.009265e-03   1.048521e-02   1.932282e-02  -1.389504e-02  -1.566854e-03
   1.004709e+00   1.000344e+00   9.992636e-01   9.945330e-01   1.011057e+00   1.013842e+00   9.914800e-01   9.873033e-01
  -2.393205e-03   9.413021e-02   8.216011e-03   8.264118e-04   1.381302e-02   1.406217e-02   1.153351e-02   4.510997e-03
  -1.191176e-02   6.372324e-02  -8.156789e-03  -1.530888e-03   2.172672e-02   3.951325e-02   1.743924e-02   1.898144e-02
  -1.275722e-02  -1.524925e-02   8.405193e-03   4.685022e-03  -2.135942e-02  -3.275214e-02   3.106732e-03  -7.102611e-03
   9.790874e-01   1.252606e+00   9.835791e-01   9.953960e-01   9.817560e-01   9.223670e-01   9.792016e-01   1.002050e+00
   9.999980e-01   9.968456e-01   9.999511e-01   9.999848e-01   9.999432e-01   9.996924e-01   9.999581e-01   9.998289e-01
   1.926041e-03  -1.164305e-02  -6.126974e-03   5.376692e-03   1.070464e-03  -1.152687e-02   1.985388e-03  -1.325304e-03
  -4.784548e-04  -7.850615e-02   7.763519e-03  -1.241861e-03  -1.060899e-02  -2.196084e-02  -8.935824e-03  -1.845222e-02
  -1.923520e-03   1.548212e-02   6.127783e-03  -5.379089e-03  -8.823832e-04   1.205357e-02  -1.947570e-03   1.432485e-03
   9.999846e-01   9.987046e-01   9.999812e-01   9.999837e-01   9.998426e-01   9.996392e-01   9.999891e-01   9.999822e-01
   5.214837e-03   4.847159e-02  -8.041234e-05  -1.934890e-03   1.771727e-02   2.400398e-02   4.238818e-03   5.796573e-03
   4.884914e-04   7.784009e-02  -7.762880e-03   1.231438e-03   1.062629e-02   2.167623e-02   8.944142e-03   1.844421e-02
  -5.213906e-03  -4.953413e-02   1.279816e-04   1.941541e-03  -1.770690e-02  -2.426130e-02  -4.221237e-03  -5.822014e-03
   9.999863e-01   9.957345e-01   9.999699e-01   9.999974e-01   9.997868e-01   9.994706e-01   9.999511e-01   9.998129e-01
   9.929523e-01   9.496004e-01   1.024237e+00   1.003030e+00   1.014741e+00   1.010619e+00   9.943292e-01   1.010761e+00
   1.004781e+00   9.997921e-01   9.992680e-01   9.946266e-01   1.011290e+00   1.014327e+00   9.914361e-01   9.873328e-01
   9.790676e-01   1.260366e+00   9.836061e-01   9.953967e-01   9.817837e-01   9.222687e-01   9.792047e-01   1.002224e+00
   8.725347e-03   1.526548e-02   2.443503e-03   1.339947e-02   1.118492e-02   6.716907e-03  -1.199466e-02  -3.016670e-03
  -1.235149e-02  -9.478000e-03  -2.060758e-04  -2.792080e-03   1.114422e-02   1.777921e-02   8.495597e-03   3.212522e-04
  -7.522757e-03   3.322805e-02   8.296524e-03   2.737421e-03  -3.572233e-03  -8.293242e-03   7.399462e-03  -1.298949e-03
  -6.908479e-03  -4.896814e-02   2.453409e-02   3.128479e-03   1.497427e-02   1.085628e-02  -5.546711e-03   1.082344e-02
   4.858301e-03   4.606813e-04  -6.943193e-04  -5.265468e-03   1.142244e-02   1.448610e-02  -8.427947e-03  -1.258162e-02
  -2.060872e-02   2.948583e-01  -1.622512e-02  -4.585042e-03  -1.798187e-02  -7.451783e-02  -2.051557e-02   2.227029e-03
   8.761915e-03   1.472174e-02   2.471366e-03   1.337995e-02   1.131059e-02   6.726963e-03  -1.187785e-02  -3.014003e-03
  -1.221151e-02  -1.021941e-02  -1.967476e-04  -2.771544e-03   1.110488e-02   1.715476e-02   8.338797e-03   3.252971e-04
  -7.515890e-03   3.747798e-02   8.225229e-03   2.705059e-03  -3.497538e-03  -7.970615e-03   7.239890e-03  -1.292651e-03
  -7.552964e-03   8.211694e-02   2.538220e-03  -2.240677e-03   2.804947e-03  -1.639181e-02  -1.149674e-02   1.562818e-04
   2.435390e-02   2.199416e-01   2.574143e-02   1.696107e-02   2.806429e-02   6.261349e-02   2.085233e-02   1.419043e-02
  -7.429689e-03  -5.264213e-02   2.333860e-02   2.886822e-03   1.383835e-02   8.789625e-03  -6.268657e-03   1.056972e-02
   4.437249e-03   1.421977e-03  -8.187761e-04  -5.856781e-03   1.073858e-02   1.350885e-02  -8.872706e-03  -1.295198e-02
  -2.187196e-02   1.786284e-01  -1.690594e-02  -4.654885e-03  -1.855694e-02  -8.713023e-02  -2.157249e-02   2.243293e-03
   8.576729e-03   1.305405e-02   2.577272e-03   1.341975e-02   1.106471e-02   7.397685e-03  -1.239704e-02  -2.966845e-03
  -1.284427e-02  -2.753434e-02  -5.984978e-04  -2.804784e-03   1.142326e-02   2.196072e-02   9.193486e-03   4.823886e-04
  -7.656993e-03   3.375593e-02   8.496406e-03   2.866215e-03  -4.216967e-03  -1.142823e-02   7.718094e-03  -1.284846e-03
  -8.288134e-03   4.246943e-02   1.871295e-03  -2.541615e-03   2.006664e-03  -2.161058e-02  -1.223795e-02  -4.632430e-05
   2.505358e-02   1.492345e-01   2.554793e-02   1.707372e-02   2.805352e-02   7.204433e-02   2.205512e-02   1.427982e-02
   1.802422e-01  -9.910901e-02   3.390363e-01  -1.668975e-01   6.640953e-02  -5.928013e-03  -1.941977e-01   1.499052e-01
   2.718654e-01   6.786065e-01  -9.377187e-02   6.037803e-02   2.910287e-01  -6.365814e-02  -2.543679e-01  -5.542909e-01
  -2.739100e-01   7.006670e-01   2.567003e-01  -4.999957e-01   4.982282e-02  -1.898019e-02  -1.621942e-01  -5.461747e-01
  -5.367563e-02  -1.984464e-01   8.760726e-02  -2.466051e-01  -1.108041e-01   3.349232e-01  -9.862762e-02   1.850877e-01
   2.183508e-02  -4.286415e-02  -2.127379e-01  -2.213442e-01   2.629251e-01  -6.450636e-03  -8.468525e-02   5.182982e-03
   1.618369e-02  -3.648118e-01   5.933487e-03  -5.039717e-01   4.229742e-02  -2.433082e-01   2.733645e-01   5.751530e-01
  -8.510204e-02   1.689846e-01  -2.607296e-01  -1.330138e-01   1.603151e-01   3.139051e-01   2.251063e-01   1.905863e-01
  -2.675668e-01  -6.678962e-01  -4.348340e-02  -3.289480e-01   1.976993e-02  -3.227563e-01  -1.165764e-01  -6.417965e-01
  -3.071051e-01   8.166516e-01  -2.032044e-01  -3.992049e-01  -4.943403e-02  -5.401616e-01  -2.272433e-01   6.539776e-01
   1.802422e-01  -9.910901e-02   3.390363e-01  -1.668975e-01   6.640953e-02  -5.928013e-03  -1.941977e-01   1.499052e-01
   2.183508e-02  -4.286415e-02  -2.127379e-01  -2.213442e-01   2.629251e-01  -6.450636e-03  -8.468525e-02   5.182982e-03
  -3.071051e-01   8.166516e-01  -2.032044e-01  -3.992049e-01  -4.943403e-02  -5.401616e-01  -2.272433e-01   6.539776e-01
   1.090949e-01   2.400800e-01  -3.082304e-03  -9.311352e-02   9.011230e-02   1.356325e-01  -1.764978e-01  -1.846016e-01
  -1.795060e-01   4.348258e-01  -2.014665e-03  -3.165047e-01   1.050690e-01   1.474624e-01   3.145609e-02  -1.777942e-01
  -1.256916e-01  -5.163540e-01  -1.877495e-02  -4.164598e-01   3.103368e-02  -2.830322e-01   7.839402e-02  -3.332177e-02
   1.627705e-01   4.385265e-01  -9.068956e-02   1.534916e-01   2.009164e-01  -1.992907e-01  -7.787016e-02  -3.696893e-01
  -9.440396e-02   2.658412e-01   2.587149e-01  -1.834910e-01  -5.524614e-02  -1.664426e-01  -1.936502e-01  -3.683805e-01
   1.418753e-01   1.515422e-01   2.470844e-02  -8.751183e-02   1.126374e-02   3.972402e-02   1.949704e-01   6.084748e-01
   5.586606e+03   3.817479e+03   5.339677e+03   6.267612e+03   4.604663e+03   8.041077e+03   6.524414e+03   1.619844e+03
   1.883361e+07   2.252863e+07   1.100404e+07   7.198466e+07   7.024615e+06   5.243769e+07   2.221152e+07   8.562541e+06
   1.883375e+07   2.252748e+07   1.100318e+07   7.197937e+07   7.024309e+06   5.243288e+07   2.220918e+07   8.561783e+06
   1.883371e+07   2.252849e+07   1.100327e+07   7.198281e+07   7.023695e+06   5.243480e+07   2.221069e+07   8.561708e+06
   1.718919e+00   1.868877e+00   1.736442e+00   1.728165e+00   1.736902e+00   1.703423e+00   1.712022e+00   1.732321e+00
   1.718919e+00   1.868877e+00   1.736442e+00   1.728165e+00   1.736902e+00   1.703423e+00   1.712022e+00   1.732321e+00
   5.984917e-01   1.509016e+00   5.947808e-01   9.646526e-01   4.509124e-01   8.187456e-01   5.798726e-01   1.367119e+00
   4.971142e-01   1.305851e+00   4.496968e-01   8.948636e-01   3.409240e-01   7.296221e-01   4.160493e-01   7.640568e-01
   3.332715e-01   7.562302e-01   3.892776e-01   3.602414e-01   2.951149e-01   3.714779e-01   4.039249e-01   1.133681e+00
  -3.098565e+03  -2.128518e+03  -2.841712e+03  -3.243040e+03  -2.510889e+03  -4.256201e+03  -3.436108e+03  -8.255159e+02
   1.851169e+03   1.101685e+03   2.572983e+03   3.151121e+03   1.876070e+03   3.954820e+03   3.275130e+03   9.215570e+02
  -4.304511e+03  -2.855065e+03  -4.348906e+03  -5.288782e+03  -3.730739e+03  -6.509048e+03  -5.477821e+03  -1.259831e+03
  -2.722627e+03  -1.858343e+03  -2.797354e+03  -2.633761e+03  -2.140103e+03  -4.315965e+03  -3.085361e+03  -9.846791e+02
  -2.268556e+03  -1.672146e+03  -1.378875e+03  -1.806576e+03  -1.661826e+03  -1.943589e+03  -1.745141e+03  -2.320380e+02
   2.448946e-01  -6.668424e-01  -1.378518e-02   1.047616e-01  -1.655395e-01  -2.552607e-01  -5.858037e-01  -3.940578e-01
   1.976802e-01   1.253612e-01   3.760598e-01  -3.489250e-01   1.089449e-01  -1.668677e-01  -5.121015e-01   4.000617e-01
   9.491834e-01  -7.345787e-01  -9.264928e-01  -9.312767e-01  -9.801672e-01  -9.523640e-01   6.281608e-01  -8.274473e-01
   9.655201e-01   1.776119e-02  -6.436717e-01  -5.609372e-01   2.949797e-01  -6.123739e-01  -1.896858e-01  -7.287597e-01
   3.944071e-02  -9.827949e-01   7.057288e-01   7.525218e-01  -9.429098e-01   7.901508e-01   8.401797e-01   4.125681e-01
  -2.573236e-01  -1.838445e-01   2.960297e-01  -3.450514e-01  -1.546226e-01   2.568798e-02   5.080525e-01   5.465317e-01
   8.830424e-02  -7.449871e-01   7.651775e-01   8.212031e-01  -9.410545e-01   7.482247e-01  -7.879425e-01   5.600248e-01
  -9.794728e-01  -1.356423e-01   6.004381e-01   5.585359e-01  -3.147255e-01   5.897600e-01   1.784658e-01   8.183753e-01
   1.812054e-01   6.531427e-01   2.323305e-01  -1.168897e-01   1.239523e-01  -3.038799e-01  -5.893188e-01   1.289731e-01
  -4.306437e+06  -1.936995e+07  -6.968981e+06   1.786753e+06  -5.707638e+06  -1.852877e+07  -9.098791e+06  -5.578108e+06
  -2.369097e+06  -7.529211e+06   3.368119e+06   1.649631e+07   2.957928e+06   1.560413e+07   2.342431e+06  -1.422005e+06
   5.533686e+06   1.297921e+07   5.790289e+06   6.021219e+07   6.407455e+06   3.915094e+07   1.916926e+07   6.258681e+06
  -4.291009e-01   9.702825e-01   8.836728e-01   5.405916e-01  -7.577412e-01   7.950286e-01  -3.387880e-01  -6.358473e-01
  -6.282402e-01  -2.404877e-01  -7.459790e-02  -8.401741e-01  -6.521191e-01  -5.776852e-01   7.749438e-01  -5.325663e-01
  -6.489889e-01   2.678585e-02  -4.621228e-01  -4.322135e-02  -2.385316e-02  -1.849576e-01  -5.335586e-01  -5.586335e-01
  -4.677485e-01  -1.878056e-01  -7.053332e-02   8.404350e-01  -3.456220e-01   6.049188e-01  -7.530056e-01  -5.180012e-01
   7.692090e-01  -6.786426e-01  -9.971681e-01   5.416412e-01   3.700595e-01   7.326067e-01   1.166751e-01  -2.421016e-01
  -4.353490e-01   7.100516e-01   2.609323e-02  -1.714024e-02   8.623232e-01   3.120267e-01   6.475875e-01   8.204033e-01
   7.727119e-01  -1.525806e-01  -4.627606e-01  -3.781125e-02  -5.535103e-01   4.475203e-02   5.640969e-01   5.721652e-01
   1.167549e-01  -6.939812e-01   9.537175e-03   2.705886e-02   6.616620e-01   3.599545e-01   6.211675e-01  -8.110240e-01
  -6.239267e-01  -7.036400e-01  -8.864320e-01  -9.989185e-01  -5.057961e-01  -9.318959e-01   5.440089e-01   1.219303e-01
  -3.855301e-01  -6.248813e-01  -2.273656e-01  -8.710307e-01  -1.125646e-01  -7.132564e-01  -3.634938e-01  -1.422796e-01
  -3.172020e-02   1.648356e-01  -1.886007e-01  -9.712033e-02   8.102866e-02   7.218324e-03  -1.954074e-01   2.400773e-01
   3.122225e-01   1.134724e+00   3.390602e-01   1.807044e-01   3.114365e-01   1.534979e-01   5.277500e-02   7.112681e-01
  -2.557646e-01   6.417962e-01  -6.479207e-03  -4.043808e-01   5.263610e-01  -2.600700e-01  -6.746030e-01  -5.969748e-01
  -2.218308e-01  -6.398136e-01  -7.893438e-01  -5.339432e-01  -5.620014e-02   4.015459e-01  -5.617186e-01  -7.848681e-01
  -9.409440e-01  -4.227721e-01  -6.139172e-01  -7.425502e-01  -8.484018e-01   8.781369e-01   4.789395e-01  -1.661421e-01
  -5.010188e-01   7.244664e-01  -5.723796e-04  -7.950586e-01  -7.440464e-01  -8.301226e-01   4.814753e-01  -7.387835e-01
   8.628213e-01   6.866370e-01  -6.139271e-01   6.065244e-01   4.524751e-01   3.715500e-01   1.569801e-01   6.185586e-01
  -6.722767e-02   6.064757e-02   7.893625e-01  -3.155423e-03  -4.915904e-01  -4.157488e-01   8.622869e-01  -2.675522e-01
   8.267797e-01  -2.514878e-01   9.999788e-01  -4.520596e-01   4.115082e-01   4.932140e-01   5.595466e-01  -3.127618e-01
   4.542362e-01   3.452075e-01  -5.465837e-03  -5.890950e-01   8.900044e-01   8.370851e-01  -8.122989e-01   3.697890e-02
  -3.318205e-01  -9.042044e-01  -3.525956e-03   6.697830e-01   1.963497e-01  -2.367033e-01  -1.645544e-01   9.491115e-01
      10      13       4       1      11      14       5       2
      11      14       5       2      12      15       6       3
      13      16       7       4      14      17       8       5
      14      17       8       5      15      18       9       6
      19      22      13      10      20      23      14      11
      20      23      14      11      21      24      15      12
      22      25      16      13      23      26      17      14
      23      26      17      14      24      27      18      15
