     VARIABLES=
              x              y              z      nomin_den    nomin_voidr      fabric_xx      fabric_yy      fabric_zz      fabric_xy      fabric_xz      fabric_yz       sigma_xx       sigma_yy       sigma_zz       sigma_xy       sigma_xz       sigma_yz    sigmaDot_xx    sigmaDot_yy    sigmaDot_zz    sigmaDot_xy    sigmaDot_xz    sigmaDot_yz       Oldro_xx       Oldro_xy       Oldro_xz       Oldro_yx       Oldro_yy       Oldro_yz       Oldro_zx       Oldro_zy       Oldro_zz       Trues_xx       Trues_xy       Trues_xz       Trues_yx       Trues_yy       Trues_yz       Trues_zx       Trues_zy       Trues_zz           F_xX           F_xY           F_xZ           F_yX           F_yY           F_yZ           F_zX           F_zY           F_zZ           R_xX           R_xY           R_xZ           R_yX           R_yY           R_yZ           R_zX           R_zY           R_zZ           U_xX           U_yY           U_zZ           U_xY           U_xZ           U_yZ       Green_xx       Green_yy       Green_zz       Green_xy       Green_xz       Green_yz      Green_vol      Green_shr       Euler_xx       Euler_yy       Euler_zz       Euler_xy       Euler_xz       Euler_yz      Euler_vol      Euler_shr           l_xx           l_xy           l_xz           l_yx           l_yy           l_yz           l_zx           l_zy           l_zz           d_xx           d_yy           d_zz           d_xy           d_xz           d_yz           w_xy           w_xz           w_yz     norm_sigma  norm_sigmaDot     norm_Oldro     norm_Trues         norm_F         norm_U         norm_l         norm_d         norm_w              p              q        sigma_1        sigma_2        sigma_3     sigma_1_v1     sigma_1_v2     sigma_1_v3     sigma_2_v1     sigma_2_v2     sigma_2_v3     sigma_3_v1     sigma_3_v2     sigma_3_v3     sigmaDot_1     sigmaDot_2     sigmaDot_3  sigmaDot_1_v1  sigmaDot_1_v2  sigmaDot_1_v3  sigmaDot_2_v1  sigmaDot_2_v2  sigmaDot_2_v3  sigmaDot_3_v1  sigmaDot_3_v2  sigmaDot_3_v3            d_1            d_2            d_3         d_1_v1         d_1_v2         d_1_v3         d_2_v1         d_2_v2         d_2_v3         d_3_v1         d_3_v2         d_3_v3
ZONE I=2, J=2, K=2, DATAPACKING=POINT, STRANDID=5, SOLUTIONTIME=4
   5.004649e-03   5.003997e-03   4.773145e-03   1.637250e+03   6.185674e-01   3.781682e-01   3.523967e-01   2.694350e-01   3.872754e-02   5.519467e-03   2.167154e-02  -7.189493e+02  -7.300925e+02  -1.028233e+03  -7.118213e+01  -1.248333e+02  -3.213078e+01   8.688737e+06  -3.641381e+06   3.764568e+07  -2.489522e+06   2.310592e+07  -2.446234e+07   8.688386e+06  -5.386380e+05   1.185317e+07  -4.439764e+06  -3.640953e+06  -1.884329e+07   3.435749e+07  -3.008163e+07   3.764501e+07   8.688549e+06  -5.386158e+05   1.185318e+07  -4.439753e+06  -3.640787e+06  -1.884328e+07   3.435753e+07  -3.008162e+07   3.764524e+07   9.949658e-01   1.131312e-04  -4.976084e-03   1.502069e-03   1.001523e+00  -2.275443e-04  -5.482967e-03  -2.332385e-03   9.933077e-01   9.999997e-01  -6.984296e-04   2.536883e-04   6.981611e-04   9.999992e-01   1.056963e-03  -2.544263e-04  -1.056786e-03   9.999994e-01   9.949679e-01   1.001525e+00   9.933056e-01   8.129490e-04  -5.228965e-03  -1.273782e-03  -5.005396e-03   1.527053e-03  -6.657465e-03   8.148537e-04  -5.198824e-03  -1.272615e-03  -3.378603e-03   8.003560e-03  -5.117046e-03   1.516257e-03  -6.801253e-03   7.965979e-04  -5.321161e-03  -1.290081e-03  -3.467347e-03   8.160883e-03  -2.091754e-01   3.963066e-02  -2.258368e-01   3.927636e-01   2.500628e-01   1.144049e-01  -3.794704e-01  -3.516045e-01  -2.684574e-01  -2.091754e-01   2.500628e-01  -2.684574e-01   2.161971e-01  -3.026536e-01  -1.185998e-01  -1.765665e-01   7.681678e-02   2.330047e-01   1.469607e+03   6.408517e+07   6.408433e+07   6.408450e+07   1.726189e+00   1.726189e+00   8.160289e-01   6.951027e-01   4.274757e-01  -8.257582e+02   4.521445e+02  -1.119986e+03  -7.353664e+02  -6.219222e+02  -4.290927e-01  -1.012101e-01  -8.975723e-01  -2.166209e-01  -9.531729e-01   2.110372e-01  -8.769007e-01   2.849875e-01   3.870753e-01  -2.621367e+07  -1.980908e+06   7.088761e+07  -4.775210e-01   6.674866e-01   5.713452e-01  -7.414305e-01  -6.550443e-01   1.455944e-01   4.714387e-01  -3.540884e-01   8.076924e-01  -5.475958e-01  -9.698755e-02   4.170133e-01   6.927440e-01  -8.121407e-02   7.165961e-01  -5.636149e-01   5.589525e-01   6.082026e-01   4.499378e-01   8.252129e-01  -3.414375e-01
   5.004649e-03   5.003997e-03   1.429985e-02   1.417798e+03   8.690957e-01   3.254658e-01   3.745106e-01   3.000236e-01  -1.805050e-02   6.293436e-03   4.161777e-02  -1.906050e+03  -1.428597e+03  -1.584834e+03   4.516403e+02   4.174066e+02  -7.905088e+02  -6.915252e+06  -7.941498e+06   1.303698e+08  -6.015182e+06   1.222074e+08   5.982363e+07  -6.915363e+06  -2.645628e+07   2.156704e+08   1.442746e+07  -7.941958e+06  -4.939157e+06   2.874423e+07   1.245822e+08   1.303676e+08  -6.915000e+06  -2.645636e+07   2.156703e+08   1.442736e+07  -7.941685e+06  -4.938995e+06   2.874419e+07   1.245823e+08   1.303679e+08   9.912564e-01  -1.928936e-03  -2.805088e-03   2.485356e-03   1.004037e+00  -4.494142e-03  -1.468894e-03  -5.093545e-03   1.011235e+00   9.999973e-01  -2.214182e-03  -6.729388e-04   2.214384e-03   9.999975e-01   2.991258e-04   6.722748e-04  -3.006151e-04   9.999997e-01   9.912583e-01   1.004041e+00   1.011235e+00   2.909689e-04  -2.135205e-03  -4.791912e-03  -8.701173e-03   4.060395e-03   1.131213e-02   2.954009e-04  -2.138564e-03  -4.828823e-03   2.223785e-03   1.319804e-02  -8.863007e-03   3.981023e-03   1.100870e-02   2.519213e-04  -2.128777e-03  -4.685642e-03   2.042238e-03   1.306857e-02  -2.281618e-01  -7.067521e-01  -1.446429e-01   9.408882e-01   3.325293e-01  -3.540833e-01   7.447123e-02  -7.993719e-01  -2.950805e-01  -2.281618e-01   3.325293e-01  -2.950805e-01   1.170680e-01  -3.508582e-02  -5.767276e-01  -8.238202e-01  -1.095570e-01   2.226443e-01   3.206835e+03   2.844307e+08   2.844288e+08   2.844289e+08   1.735898e+00   1.735898e+00   1.557342e+00   9.720120e-01   1.216760e+00  -1.639827e+03   1.640351e+03  -2.613476e+03  -1.584189e+03  -7.218150e+02   5.947004e-01  -5.905881e-01  -5.454696e-01   7.729399e-01   2.334072e-01   5.899873e-01   2.211229e-01   7.724809e-01  -5.952965e-01  -8.134212e+07  -1.163102e+07   2.084862e+08   3.032870e-02   8.596476e-01  -5.099864e-01  -9.886177e-01   1.010201e-01   1.114897e-01   1.473608e-01   5.008003e-01   8.529267e-01  -6.400400e-01  -2.412811e-01   6.906081e-01   7.370260e-02  -5.152192e-01  -8.538835e-01  -9.890224e-01   7.219516e-02  -1.289284e-01   1.280727e-01   8.540123e-01  -5.042424e-01
   5.004649e-03   1.499509e-02   4.773145e-03   1.396086e+03   8.981634e-01   3.104802e-01   3.092237e-01   3.802961e-01   1.815274e-02   2.141278e-02   2.183023e-02  -2.573066e+02  -3.075780e+02  -2.926066e+02  -1.396419e+01   8.071310e+01  -1.745911e+02   1.477664e+06   3.137956e+06  -2.356110e+06  -1.420836e+06  -7.585078e+05   4.963912e+05   1.477636e+06  -2.386737e+05  -1.653758e+06  -2.602885e+06   3.137897e+06   1.421881e+06   1.366805e+05  -4.292142e+05  -2.356216e+06   1.477761e+06  -2.386756e+05  -1.653790e+06  -2.602870e+06   3.138046e+06   1.421984e+06   1.366347e+05  -4.291476e+05  -2.356074e+06   9.998959e-01   1.282168e-04  -4.367507e-04   3.320027e-03   9.972303e-01   1.527407e-03  -1.672994e-03   1.259447e-03   9.977525e-01   9.999985e-01  -1.598744e-03   6.197399e-04   1.598661e-03   9.999987e-01   1.351219e-04  -6.199552e-04  -1.341310e-04   9.999998e-01   9.999007e-01   9.972287e-01   9.977522e-01   1.721669e-03  -1.052870e-03   1.394274e-03  -9.722664e-05  -2.765031e-03  -2.243735e-03   1.718464e-03  -1.050434e-03   1.389868e-03  -1.701997e-03   3.263468e-03  -1.122856e-04  -2.784402e-03  -2.259078e-03   1.736359e-03  -1.064041e-03   1.404877e-03  -1.718589e-03   3.291393e-03  -9.485182e-02  -3.100321e-02  -1.350701e-01   3.707859e-01  -1.290674e-01   3.007604e-02  -6.233472e-02   1.058208e-01  -2.615337e-01  -9.485182e-02  -1.290674e-01  -2.615337e-01   1.698913e-01  -9.870243e-02   6.794842e-02  -2.008945e-01  -3.636771e-02  -3.787238e-02   5.697529e+02   5.419720e+06   5.419696e+06   5.419778e+06   1.729100e+00   1.729100e+00   5.164598e-01   4.248525e-01   2.936513e-01  -2.858304e+02   2.969065e+02  -4.482143e+02  -3.026594e+02  -1.066176e+02  -2.484956e-01   6.469635e-01   7.208940e-01  -8.130560e-01  -5.438373e-01   2.078004e-01   5.264883e-01  -5.344896e-01   6.611588e-01  -2.391038e+06  -4.139702e+05   5.064517e+06   2.461359e-02   8.887798e-02   9.957384e-01  -8.086356e-01  -5.838745e-01   7.210429e-02   5.877947e-01  -8.069642e-01   5.749865e-02  -3.899792e-01  -1.569573e-01   6.148351e-02  -5.240940e-01   5.174284e-01  -6.764565e-01   3.847124e-01  -5.647897e-01  -7.300746e-01  -7.598170e-01  -6.428689e-01   9.694175e-02
   5.004649e-03   1.499509e-02   1.429985e-02   1.423636e+03   8.614306e-01   2.849441e-01   4.830945e-01   2.319614e-01   1.027196e-01   1.587896e-01   5.927182e-02  -9.158464e+01  -2.233254e+02  -9.888301e+01  -8.125328e+01  -1.211915e+02  -1.312681e+02   7.780723e+06  -5.697890e+05  -5.149353e+06   1.003971e+07  -3.344759e+06   3.548638e+06   7.780771e+06   7.439412e+06  -1.271001e+06   1.264003e+07  -5.701872e+05   7.572580e+05  -5.418706e+06   6.339641e+06  -5.149524e+06   7.780980e+06   7.439579e+06  -1.270634e+06   1.264024e+07  -5.696765e+05   7.575649e+05  -5.418518e+06   6.339934e+06  -5.149298e+06   9.963411e-01   2.384600e-03   3.944823e-04   4.245019e-03   9.978011e-01  -1.324031e-03  -6.606563e-04  -1.258174e-03   9.936126e-01   9.999994e-01  -9.325873e-04   5.296996e-04   9.326053e-04   9.999996e-01  -3.364246e-05  -5.296680e-04   3.413644e-05   9.999999e-01   9.963448e-01   9.977984e-01   9.936127e-01   3.315820e-03  -1.330375e-04  -1.290480e-03  -3.642985e-03  -2.192879e-03  -6.366030e-03   3.306195e-03  -1.345090e-04  -1.285158e-03  -4.067298e-03   4.773466e-03  -3.698411e-03  -2.221801e-03  -6.451517e-03   3.342889e-03  -1.286686e-04  -1.308369e-03  -4.123910e-03   4.832074e-03  -2.896545e-01   1.898587e-01   2.903118e-01   7.834272e-01  -9.730424e-01  -3.459346e-01   1.093764e-01   1.782102e-02  -1.023939e+00  -2.896545e-01  -9.730424e-01  -1.023939e+00   4.866430e-01   1.998441e-01  -1.640568e-01  -2.967842e-01   9.046769e-02  -1.818778e-01   3.851051e+02   1.934527e+07   1.934530e+07   1.934554e+07   1.724992e+00   1.724992e+00   1.716159e+00   1.639058e+00   5.086154e-01  -1.379310e+02   3.316109e+02  -3.574847e+02  -5.056825e+01  -5.740067e+00  -4.108034e-01  -7.580980e-01  -5.064860e-01  -7.686333e-01   5.867500e-01  -2.548082e-01  -4.903503e-01  -2.846260e-01   8.237382e-01  -1.605199e+07   1.172801e+06   1.694077e+07  -4.757068e-01   6.368366e-01  -6.067472e-01   3.277587e-01  -5.117838e-01  -7.941358e-01  -8.162581e-01  -5.766425e-01   3.473034e-02  -1.385616e+00  -8.751632e-01  -2.585732e-02   4.197694e-01  -7.166186e-01  -5.570021e-01   1.687983e-01  -5.413437e-01   8.236833e-01   8.917964e-01   4.397780e-01   1.062755e-01
   1.499544e-02   5.003997e-03   4.773145e-03   1.620671e+03   6.351252e-01   2.971291e-01   2.758909e-01   4.269800e-01  -1.014885e-04  -1.839872e-02   5.146461e-02  -1.429065e+03  -4.924018e+02  -1.680974e+03  -4.054354e+02   1.087964e+03   3.224693e+02   1.964317e+07   2.533856e+06   1.969584e+07   3.897499e+06  -2.999100e+07  -4.057639e+06   1.964319e+07   3.711162e+06  -3.034657e+07   4.082500e+06   2.533682e+06   2.270339e+06  -2.963282e+07  -1.038380e+07   1.969258e+07   1.964385e+07   3.711386e+06  -3.034706e+07   4.082653e+06   2.533911e+06   2.270209e+06  -2.963334e+07  -1.038397e+07   1.969336e+07   9.997144e-01   2.287603e-03   3.358383e-04  -2.961672e-03   1.003869e+00   4.226356e-03   6.000588e-03  -7.524646e-03   9.917070e-01   9.999925e-01   2.635227e-03  -2.833594e-03  -2.618486e-03   9.999792e-01   5.895803e-03   2.849072e-03  -5.888339e-03   9.999786e-01   9.997318e-01   1.003898e+00   9.917098e-01  -3.624691e-04   3.150213e-03  -1.612354e-03  -2.631841e-04   3.907261e-03  -8.249594e-03  -3.656666e-04   3.137025e-03  -1.609384e-03  -1.535172e-03   8.223989e-03  -3.035594e-04   3.853705e-03  -8.375870e-03  -3.183478e-04   3.210936e-03  -1.703046e-03  -1.608575e-03   8.325042e-03  -1.759669e-02   2.056178e-01   4.421298e-02  -2.902914e-01   3.471787e-01   4.347704e-01   5.862277e-01  -1.053843e+00  -7.937326e-01  -1.759669e-02   3.471787e-01  -7.937326e-01  -4.233683e-02   3.152204e-01  -3.095363e-01   2.479546e-01  -2.710074e-01   7.443067e-01   2.834018e+03   5.218064e+07   5.217765e+07   5.217885e+07   1.729390e+00   1.729390e+00   1.588279e+00   1.069950e+00   1.173813e+00  -1.200814e+03   2.380157e+03  -2.787415e+03  -4.276508e+02  -3.873756e+02   6.519075e-01   2.090134e-01  -7.289238e-01   7.342430e-01   6.621152e-02   6.756503e-01  -1.894832e-01   9.756687e-01   1.103029e-01  -1.156536e+07   1.980204e+06   5.145802e+07  -6.244780e-01  -3.378277e-01  -7.042014e-01   3.824614e-01  -9.183887e-01   1.014177e-01   6.809923e-01   2.059968e-01  -7.027196e-01  -9.652012e-01   4.117756e-02   4.598730e-01  -3.001678e-01   2.097905e-01   9.305306e-01  -9.130758e-01  -3.454796e-01  -2.166480e-01  -2.760286e-01   9.146758e-01  -2.952565e-01
   1.499544e-02   5.003997e-03   1.429985e-02   1.384421e+03   9.141578e-01   3.670134e-01   3.849469e-01   2.480396e-01  -1.794452e-02  -2.646440e-02  -4.015110e-02  -9.587545e+02  -1.555321e+03  -2.497570e+02   3.228707e+02   6.350520e+02   2.462144e+02   7.403755e+06  -9.514942e+06   5.199391e+06  -2.095044e+06   6.551190e+06   1.671734e+06   7.406712e+06  -1.529353e+05   2.032838e+06  -4.038130e+06  -9.512442e+06   3.152274e+06   1.107194e+07   1.838093e+05   5.198161e+06   7.404445e+06  -1.525298e+05   2.034673e+06  -4.037009e+06  -9.516119e+06   3.153124e+06   1.107310e+07   1.841236e+05   5.197571e+06   1.006634e+00  -2.870594e-03   5.694408e-03  -3.899463e-04   1.004211e+00  -1.361522e-03   1.763744e-02  -1.162149e-03   9.720556e-01   9.999810e-01  -1.238397e-03  -6.036526e-03   1.237714e-03   9.999992e-01  -1.169070e-04   6.036666e-03   1.094332e-04   9.999818e-01   1.006721e+00   1.004213e+00   9.720037e-01  -1.634629e-03   1.156059e-02  -1.262198e-03   6.812105e-03   4.224223e-03  -2.753682e-02  -1.650862e-03   1.143865e-02  -1.256637e-03  -5.500165e-03   2.584652e-02   6.304167e-03   4.176822e-03  -2.928913e-02  -1.577102e-03   1.216219e-02  -1.271186e-03  -6.269380e-03   2.709453e-02   1.265176e+00  -4.315153e-01  -1.987657e-01   3.651563e-01   7.700847e-01  -6.926804e-01   1.711810e+00  -1.584605e+00   3.291198e-01   1.265176e+00   7.700847e-01   3.291198e-01  -3.317949e-02   7.565222e-01  -1.138643e+00  -3.983358e-01  -9.552879e-01   4.459624e-01   2.155998e+03   1.803844e+07   1.803850e+07   1.804016e+07   1.722498e+00   1.722498e+00   2.929530e+00   2.458025e+00   1.593819e+00  -9.212776e+02   1.655526e+03  -1.828296e+03  -1.012357e+03   7.682070e+01  -5.155936e-01   8.521429e-01   8.953122e-02  -6.969952e-01  -4.778910e-01   5.346194e-01   4.983583e-01   2.132435e-01   8.403370e-01  -1.109650e+07  -3.547688e+06   1.773240e+07   3.439012e-01   9.067416e-01  -2.440320e-01  -5.702145e-01   4.081391e-01   7.129362e-01   7.460479e-01  -1.060291e-01   6.573967e-01  -7.736614e-01   1.059274e+00   2.078768e+00  -2.786327e-01   5.661930e-01   7.757508e-01  -7.621141e-01  -6.218748e-01   1.801497e-01  -5.844193e-01   5.410150e-01  -6.047783e-01
   1.499544e-02   1.499509e-02   4.773145e-03   1.455394e+03   8.208128e-01   2.963973e-01   4.125176e-01   2.910851e-01   1.703820e-01  -5.661104e-02  -1.030757e-02  -9.138380e+02  -7.918482e+02  -1.582723e+03  -1.137685e+03   5.948510e+02   6.529681e+02  -7.431671e+06  -8.189640e+05   2.896876e+07  -6.929518e+06  -8.669195e+06  -8.672482e+06  -7.432321e+06  -1.092030e+07  -8.217614e+06  -2.941019e+06  -8.206461e+05  -8.360943e+06  -9.118417e+06  -8.980948e+06   2.896605e+07  -7.431317e+06  -1.091948e+07  -8.218286e+06  -2.939342e+06  -8.197758e+05  -8.361442e+06  -9.119053e+06  -8.981885e+06   2.896779e+07   9.980184e-01  -2.746031e-03  -1.534059e-03  -3.391386e-03   9.950662e-01   7.654799e-04   3.497248e-03   4.215711e-03   9.964027e-01   9.999968e-01   3.239040e-04  -2.526040e-03  -3.282893e-04   9.999984e-01  -1.735817e-03   2.525474e-03   1.736640e-03   9.999953e-01   9.980251e-01   9.950711e-01   9.964006e-01  -3.062045e-03   9.820841e-04   2.495375e-03  -1.967755e-03  -4.908957e-03  -3.589364e-03  -3.050250e-03   9.755264e-04   2.483231e-03  -3.488692e-03   4.978940e-03  -2.003549e-03  -4.996168e-03  -3.616118e-03  -3.106918e-03   1.001537e-03   2.521692e-03  -3.538612e-03   5.067332e-03  -2.254297e-01  -2.342519e-01  -2.476647e-01  -5.312915e-01  -3.890879e-01  -1.095178e-01   2.599833e-01   6.663508e-01  -4.844890e-01  -2.254297e-01  -3.890879e-01  -4.844890e-01  -3.827717e-01   6.159302e-03   2.784165e-01   1.485198e-01  -2.538240e-01  -3.879343e-01   2.915120e+03   3.639090e+07   3.638798e+07   3.638941e+07   1.725998e+00   1.725998e+00   1.165774e+00   9.407834e-01   6.884443e-01  -1.096137e+03   3.273264e+03  -3.068955e+03  -9.174453e+02   6.979907e+02  -5.727327e-01  -5.948908e-01   5.639878e-01   4.825649e-01   3.114861e-01   8.186009e-01  -6.626525e-01   7.410002e-01   1.086752e-01  -1.207868e+07  -2.806170e+05   3.307742e+07  -8.462167e-01  -4.493584e-01  -2.863464e-01   4.950011e-01  -8.618581e-01  -1.103383e-01   1.972085e-01   2.351119e-01  -9.517516e-01  -8.457673e-01  -3.889992e-01   1.357598e-01  -4.417096e-01  -7.069670e-01   5.523497e-01  -5.686480e-01  -2.555810e-01  -7.818682e-01   6.939251e-01  -6.594512e-01  -2.891228e-01
   1.499544e-02   1.499509e-02   1.429985e-02   1.290095e+03   1.054113e+00   1.645717e-01   5.748216e-01   2.606067e-01   4.368817e-02   1.861528e-02  -1.728357e-01  -2.478713e+02  -1.560357e+03  -2.461446e+02  -5.263578e+02   4.396106e+01   4.813663e+01   1.013734e+07  -1.299873e+07  -1.457478e+06  -1.259407e+06   1.450771e+06  -6.621832e+05   1.013787e+07  -2.161796e+06   5.094826e+06  -3.557668e+05  -1.299972e+07  -3.627804e+05  -2.193122e+06  -9.613581e+05  -1.457303e+06   1.013783e+07  -2.161875e+06   5.094851e+06  -3.558746e+05  -1.300000e+07  -3.627756e+05  -2.193131e+06  -9.613459e+05  -1.457347e+06   1.003412e+00  -1.013491e-03  -3.970500e-03  -9.188760e-04   1.001780e+00  -4.509314e-04  -2.311153e-03  -8.599377e-04   9.818141e-01   9.999996e-01  -4.769451e-05  -8.357679e-04   4.786657e-05   1.000000e+00   2.058431e-04   8.357581e-04  -2.058831e-04   9.999996e-01   1.003410e+00   1.001780e+00   9.818169e-01  -9.662574e-04  -3.149961e-03  -6.528809e-04   3.421320e-03   1.782376e-03  -1.801257e-02  -9.677367e-04  -3.126379e-03  -6.460044e-04  -4.269624e-03   1.430389e-02   3.381669e-03   1.772952e-03  -1.871262e-02  -9.619560e-04  -3.203914e-03  -6.791836e-04  -4.519334e-03   1.475967e-02   3.361343e-02   5.166853e-01   3.194001e-01  -2.282980e-01  -2.403310e-01   1.298147e-02   1.392910e-01   2.195611e-02   3.840002e-01   3.361343e-02  -2.403310e-01   3.840002e-01   1.441937e-01   2.293456e-01   1.746879e-02   3.724916e-01   9.005452e-02  -4.487324e-03   1.775385e+03   1.762053e+07   1.762146e+07   1.762166e+07   1.724640e+00   1.724640e+00   8.046724e-01   5.947585e-01   5.419962e-01  -6.847909e+02   1.689923e+03  -1.799947e+03  -2.660194e+02   1.159319e+01  -3.636844e-01  -9.310700e-01   2.902265e-02   2.674588e-01  -7.452612e-02   9.606829e-01  -8.923001e-01   3.571477e-01   2.761269e-01  -1.309086e+07  -1.767693e+06   1.053968e+07  -2.347025e-02  -9.959549e-01  -8.673510e-02  -1.778580e-01   8.953473e-02  -9.799745e-01   9.837762e-01  -7.573711e-03  -1.792400e-01  -3.117976e-01  -1.710879e-02   5.061890e-01  -4.527948e-01   8.825104e-01   1.270916e-01  -7.632775e-01  -4.573380e-01   4.563435e-01   4.608517e-01   1.096237e-01   8.806806e-01
