     VARIABLES=
              x              y              z      nomin_den    nomin_voidr      fabric_xx      fabric_yy      fabric_zz      fabric_xy      fabric_xz      fabric_yz       sigma_xx       sigma_yy       sigma_zz       sigma_xy       sigma_xz       sigma_yz    sigmaDot_xx    sigmaDot_yy    sigmaDot_zz    sigmaDot_xy    sigmaDot_xz    sigmaDot_yz       Oldro_xx       Oldro_xy       Oldro_xz       Oldro_yx       Oldro_yy       Oldro_yz       Oldro_zx       Oldro_zy       Oldro_zz       Trues_xx       Trues_xy       Trues_xz       Trues_yx       Trues_yy       Trues_yz       Trues_zx       Trues_zy       Trues_zz           F_xX           F_xY           F_xZ           F_yX           F_yY           F_yZ           F_zX           F_zY           F_zZ           R_xX           R_xY           R_xZ           R_yX           R_yY           R_yZ           R_zX           R_zY           R_zZ           U_xX           U_yY           U_zZ           U_xY           U_xZ           U_yZ       Green_xx       Green_yy       Green_zz       Green_xy       Green_xz       Green_yz      Green_vol      Green_shr       Euler_xx       Euler_yy       Euler_zz       Euler_xy       Euler_xz       Euler_yz      Euler_vol      Euler_shr           l_xx           l_xy           l_xz           l_yx           l_yy           l_yz           l_zx           l_zy           l_zz           d_xx           d_yy           d_zz           d_xy           d_xz           d_yz           w_xy           w_xz           w_yz     norm_sigma  norm_sigmaDot     norm_Oldro     norm_Trues         norm_F         norm_U         norm_l         norm_d         norm_w              p              q        sigma_1        sigma_2        sigma_3     sigma_1_v1     sigma_1_v2     sigma_1_v3     sigma_2_v1     sigma_2_v2     sigma_2_v3     sigma_3_v1     sigma_3_v2     sigma_3_v3     sigmaDot_1     sigmaDot_2     sigmaDot_3  sigmaDot_1_v1  sigmaDot_1_v2  sigmaDot_1_v3  sigmaDot_2_v1  sigmaDot_2_v2  sigmaDot_2_v3  sigmaDot_3_v1  sigmaDot_3_v2  sigmaDot_3_v3            d_1            d_2            d_3         d_1_v1         d_1_v2         d_1_v3         d_2_v1         d_2_v2         d_2_v3         d_3_v1         d_3_v2         d_3_v3
ZONE I=2, J=2, K=2, DATAPACKING=POINT, STRANDID=5, SOLUTIONTIME=10
   4.997603e-03   5.006895e-03   4.626062e-03   1.713549e+03   5.464980e-01   3.651116e-01   3.132211e-01   3.216673e-01   3.282294e-02   4.196997e-03   7.335050e-02  -1.570928e+03  -1.753619e+03  -3.095496e+03  -1.836786e+02  -2.303266e+01  -4.138485e+02  -2.377709e+06  -9.646472e+06  -5.012055e+06   1.043331e+06   2.872305e+05  -4.647363e+06  -2.377687e+06  -1.011219e+06   8.349226e+05   3.098489e+06  -9.646055e+06  -3.349490e+06  -2.617918e+05  -5.945490e+06  -5.014014e+06  -2.377359e+06  -1.011158e+06   8.349485e+05   3.098505e+06  -9.645689e+06  -3.349389e+06  -2.618080e+05  -5.945418e+06  -5.013367e+06   9.943498e-01   7.924156e-03  -1.217989e-02   5.438103e-03   1.004695e+00  -2.023504e-03  -1.362580e-02  -1.274232e-02   9.804405e-01   9.999990e-01   1.209534e-03   7.217335e-04  -1.213406e-03   9.999847e-01   5.388730e-03  -7.152046e-04  -5.389600e-03   9.999852e-01   9.943520e-01   1.004758e+00   9.804064e-01   6.714158e-03  -1.287864e-02  -7.322387e-03  -5.526584e-03   4.818617e-03  -1.929195e-02   6.758321e-03  -1.274068e-02  -7.311305e-03  -6.666638e-03   2.331694e-02  -6.024593e-03   4.482034e-03  -2.043177e-02   6.517198e-03  -1.336616e-02  -7.483996e-03  -7.324775e-03   2.404386e-02  -3.531253e-02   3.811142e-01  -1.547748e-01  -2.018314e-01   1.100995e-01   1.265532e-01  -1.869031e-01  -2.327373e-01  -2.838272e-01  -3.531253e-02   1.100995e-01  -2.838272e-01   8.964142e-02  -1.708389e-01  -5.309204e-02   2.914728e-01   1.606414e-02   1.796452e-01   3.948332e+03   1.348269e+07   1.348321e+07   1.348259e+07   1.720465e+00   1.720465e+00   6.395162e-01   4.171419e-01   4.847408e-01  -2.140014e+03   1.571262e+03  -3.180390e+03  -1.725504e+03  -1.514148e+03  -3.591433e-02   2.320985e-01   9.720290e-01  -5.084054e-01  -8.416267e-01   1.821769e-01   8.603686e-01  -4.876420e-01   1.482266e-01  -1.421351e+07  -3.392542e+06   5.698154e+05   2.042848e-01  -8.248442e-01  -5.271620e-01   7.669295e-01  -1.998061e-01   6.098333e-01   6.083477e-01   5.288758e-01  -5.917800e-01  -3.709148e-01  -2.706235e-02   1.889369e-01  -4.505139e-01  -1.456909e-02  -8.926506e-01  -7.156349e-01   6.036880e-01   3.513225e-01  -5.337640e-01  -7.970875e-01   2.823959e-01
   4.997603e-03   5.006895e-03   1.387167e-02   1.461950e+03   8.126473e-01   3.855078e-01   3.900948e-01   2.243975e-01  -7.952058e-02  -1.568202e-02  -3.488379e-02  -1.950603e+03  -1.768303e+03  -1.573363e+03   5.287869e+02  -8.260631e+01   1.428697e+02   6.744146e+06  -9.224653e+06  -1.678311e+06  -5.988628e+06   1.518659e+06   5.611524e+06   6.742440e+06  -3.386972e+06   1.876011e+06  -8.588511e+06  -9.224026e+06   3.346615e+06   1.163853e+06   7.872724e+06  -1.676209e+06   6.741597e+06  -3.386714e+06   1.876001e+06  -8.588312e+06  -9.224790e+06   3.346699e+06   1.163792e+06   7.872763e+06  -1.676889e+06   9.597374e-01   5.957811e-03  -7.015867e-02   3.076838e-02   9.932657e-01   8.823347e-02   5.134750e-02  -1.257193e-03   1.194268e+00   9.983408e-01  -1.044852e-02  -5.662564e-02   1.278186e-02   9.990773e-01   4.100209e-02   5.614498e-02  -4.165784e-02   9.975532e-01   9.614212e-01   9.923393e-01   1.198936e+00   1.857312e-02  -1.862325e-03   3.913449e-02  -3.766039e-02  -6.693105e-03   2.194915e-01   1.810728e-02  -1.648219e-03   4.285993e-02   5.837934e-02   1.707831e-01  -4.101122e-02  -6.896229e-03   1.469319e-01   1.742774e-02  -1.435744e-02   3.791920e-02   3.300816e-02   1.263469e-01  -2.369085e-01   8.106186e-01   4.590324e-01  -2.768831e-01   6.086414e-02  -4.181116e-01   1.750482e-01  -5.573793e-01   6.083731e-01  -2.369085e-01   6.086414e-02   6.083731e-01   2.668677e-01   3.170403e-01  -4.877454e-01   5.437509e-01   1.419921e-01   6.963385e-02   3.169034e+03   1.722604e+07   1.722325e+07   1.722328e+07   1.830376e+00   1.830376e+00   1.374975e+00   1.117678e+00   8.008441e-01  -1.764090e+03   9.103092e+02  -2.364496e+03  -1.540405e+03  -1.387368e+03   7.586114e-01  -6.176400e-01   2.074355e-01  -7.695780e-02   2.312052e-01   9.698565e-01  -6.469824e-01  -7.517080e-01   1.278627e-01  -1.688925e+07   1.816041e+06   1.091439e+07  -3.239449e-01  -8.298318e-01   4.543555e-01   3.710321e-01   3.303441e-01   8.678755e-01  -8.702844e-01   4.497243e-01   2.008810e-01  -6.278129e-01   1.472486e-01   9.128930e-01   7.167325e-01  -5.661224e-01  -4.071853e-01   6.841155e-01   6.840283e-01   2.531626e-01  -1.352052e-01   4.600117e-01  -8.775584e-01
   4.997603e-03   1.499948e-02   4.626062e-03   1.415289e+03   8.724089e-01   2.691846e-01   3.164599e-01   4.143555e-01  -6.636006e-02  -4.456650e-02  -3.097013e-02  -1.620293e+03  -1.783391e+03  -2.882682e+03   6.676075e+02   2.654757e+02   1.304187e+01   2.046562e+06   2.393668e+06   1.495355e+07  -5.273656e+06  -1.640965e+06   2.653759e+06   2.048018e+06   4.131388e+05   3.045099e+06  -1.096154e+07   2.392811e+06   9.405725e+06  -6.327544e+06  -4.096927e+06   1.495275e+07   2.048080e+06   4.131128e+05   3.045081e+06  -1.096157e+07   2.392880e+06   9.405720e+06  -6.327547e+06  -4.096923e+06   1.495286e+07   1.021859e+00  -5.760495e-03   5.398810e-03   6.863136e-03   9.923641e-01   4.513806e-03  -4.991426e-03   1.329822e-02   9.835233e-01   9.999666e-01  -6.278875e-03   5.224099e-03   6.302049e-03   9.999703e-01  -4.431330e-03  -5.196120e-03   4.464105e-03   9.999765e-01   1.021894e+00   9.924302e-01   9.835084e-01   4.245254e-04   3.165710e-04   8.870325e-03   2.213382e-02  -7.501721e-03  -1.631619e-02   4.289700e-04   3.193090e-04   8.763676e-03  -5.613657e-04   2.537230e-02   2.119028e-02  -7.855448e-03  -1.695336e-02   6.412781e-04   5.401378e-05   9.239204e-03  -1.206175e-03   2.536851e-02   3.694561e-01  -2.346979e-01   1.035902e-01   8.264378e-04  -2.389835e-01   1.547706e-01  -3.177463e-01  -1.280312e-02  -1.690970e-01   3.694561e-01  -2.389835e-01  -1.690970e-01  -1.169357e-01  -1.070781e-01   7.098372e-02  -1.177622e-01   2.106682e-01   8.378685e-02   3.904621e+03   2.254762e+07   2.254758e+07   2.254768e+07   1.731078e+00   1.731078e+00   6.427286e-01   5.315651e-01   3.613012e-01  -2.095455e+03   1.668018e+03  -2.911480e+03  -2.341664e+03  -1.033222e+03   1.451093e-01  -1.715246e-01  -9.744345e-01  -6.468793e-01   7.287640e-01  -2.246114e-01   7.486591e-01   6.629347e-01  -5.205288e-03  -1.086202e+07   1.270168e+07   1.755412e+07  -6.971295e-01  -6.617339e-01  -2.758961e-01  -5.914788e-01   7.483167e-01  -3.002915e-01  -4.051708e-01   4.615536e-02   9.130752e-01  -2.867199e-01  -1.671373e-01   4.152328e-01  -8.285167e-02  -8.848024e-01   4.585414e-01  -2.651984e-01  -4.239568e-01  -8.659853e-01   9.606276e-01  -1.933528e-01  -1.995226e-01
   4.997603e-03   1.499948e-02   1.387167e-02   1.508138e+03   7.571339e-01   3.416769e-01   3.317545e-01   3.265686e-01   6.917457e-03  -5.914921e-03   2.650546e-02  -1.384532e+03  -2.123861e+03  -1.885827e+03   3.138963e+01  -2.098225e+02  -6.736420e+02  -1.484502e+06   4.020338e+06  -1.275223e+06   8.414409e+05  -9.305016e+06  -6.155033e+06  -1.485274e+06  -9.784656e+06  -1.391494e+07   1.146755e+07   4.018795e+06  -1.945049e+06  -4.699256e+06  -1.037035e+07  -1.276448e+06  -1.484792e+06  -9.784626e+06  -1.391491e+07   1.146750e+07   4.019534e+06  -1.944870e+06  -4.699147e+06  -1.037006e+07  -1.275791e+06   1.050725e+00   1.739692e-01  -6.362062e-02   3.234690e-02   1.070408e+00  -2.698442e-02   7.338558e-03   3.401206e-02   9.882173e-01   9.971956e-01   6.650861e-02  -3.431511e-02  -6.746993e-02   9.973378e-01  -2.766013e-02   3.238412e-02   2.989780e-02   9.990282e-01   1.045833e+00   1.080145e+00   9.901865e-01   1.023624e-01  -2.961902e-02  -1.598384e-03   5.256113e-02   8.859744e-02  -9.325426e-03   1.088338e-01  -3.023426e-02  -3.170530e-03   4.394438e-02   1.424634e-01   4.243433e-02   4.705626e-02  -1.265921e-02   8.869616e-02  -2.394900e-02   9.088923e-03   2.561046e-02   1.132957e-01  -1.911170e-01   1.411594e-01  -5.567192e-01   1.676093e-01  -1.162761e-01  -7.710749e-01  -7.921996e-01  -5.482444e-01  -4.071568e-02  -1.911170e-01  -1.162761e-01  -4.071568e-02   1.543843e-01  -6.744594e-01  -6.596596e-01  -1.322495e-02   1.177402e-01  -1.114153e-01   3.328928e+03   2.396091e+07   2.396385e+07   2.396369e+07   1.806562e+00   1.806562e+00   1.390096e+00   1.370936e+00   2.300044e-01  -1.798073e+03   1.693951e+03  -2.852015e+03  -1.622378e+03  -9.198270e+02  -6.598910e-02  -7.451906e-01  -6.635785e-01  -8.059015e-01   4.319342e-01  -4.049145e-01   5.883607e-01   5.080590e-01  -6.290531e-01  -1.184133e+07  -6.019912e+06   1.912185e+07   5.774757e-01  -6.962053e-01  -4.264036e-01  -6.394635e-01  -6.101722e-02  -7.663963e-01   5.075512e-01   7.152448e-01  -4.804339e-01  -9.653289e-01  -3.066642e-01   9.238844e-01  -5.302687e-01  -4.579382e-01  -7.135178e-01  -6.887735e-01   7.234129e-01   4.759034e-02   4.943746e-01   5.166878e-01  -6.990189e-01
   1.498795e-02   5.006895e-03   4.626062e-03   1.644513e+03   6.114195e-01   2.834514e-01   2.742521e-01   4.422966e-01  -6.527140e-02   5.135236e-03   1.223254e-02  -1.332312e+03  -1.622386e+03  -3.587543e+03   2.328901e+02  -8.983088e+01  -4.119530e+02   1.836709e+06  -1.464598e+05   6.150125e+06  -7.934945e+05  -1.974034e+06   1.273877e+06   1.836865e+06   2.502656e+06  -5.509335e+06  -4.089217e+06  -1.451663e+05   2.931543e+06   1.562828e+06  -3.824354e+05   6.150367e+06   1.836246e+06   2.502766e+06  -5.509415e+06  -4.089111e+06  -1.459201e+05   2.931365e+06   1.562825e+06  -3.826396e+05   6.148700e+06   1.010823e+00   1.078270e-02   4.716095e-04   6.035392e-03   1.008843e+00   1.245402e-02   2.008973e-02  -2.110668e-02   9.811584e-01   9.999479e-01   2.498801e-03  -9.892360e-03  -2.331102e-03   9.998540e-01   1.692771e-02   9.933215e-03  -1.690377e-02   9.998078e-01   1.010956e+00   1.009079e+00   9.811759e-01   8.220764e-03   1.018861e-02  -4.131892e-03   1.110162e-02   9.162955e-03  -1.858648e-02   8.282068e-03   1.013154e-02  -4.069881e-03   5.593666e-04   2.486408e-02   1.035690e-02   8.639922e-03  -1.919841e-02   8.262204e-03   1.051598e-02  -4.741704e-03  -6.719756e-05   2.520775e-02   9.932722e-02   2.839776e-01   1.303307e-01  -1.589430e-01   3.385520e-01   1.467758e-01   1.436859e-01   2.919861e-02   2.670464e-02   9.932722e-02   3.385520e-01   2.670464e-02   6.251730e-02   1.370083e-01   8.798718e-02   2.214603e-01  -6.677587e-03   5.878857e-02   4.213874e+03   1.028313e+07   1.028312e+07   1.028201e+07   1.733019e+00   1.733019e+00   5.395647e-01   4.313228e-01   3.241769e-01  -2.180747e+03   2.291904e+03  -3.682068e+03  -1.675988e+03  -1.184185e+03   1.730317e-02  -2.105072e-01  -9.774392e-01  -5.474224e-01   8.160518e-01  -1.854406e-01   8.366776e-01   5.382808e-01  -1.011160e-01  -3.410240e+06   4.056654e+06   7.193960e+06  -6.262745e-01  -7.763432e-01   7.121362e-02  -6.179643e-01   5.500406e-01   5.617611e-01   4.752898e-01  -3.078092e-01   8.242288e-01  -8.133308e-02   1.496466e-01   3.962704e-01  -5.839807e-01  -8.228057e-02   8.075868e-01  -7.372916e-01   4.700247e-01  -4.852607e-01   3.396582e-01   8.788098e-01   3.351501e-01
   1.498795e-02   5.006895e-03   1.387167e-02   1.399662e+03   8.933138e-01   2.657534e-01   4.071588e-01   3.270877e-01   1.148710e-02   3.588877e-03  -2.714397e-02  -1.324486e+03  -2.327632e+03  -5.019411e+03   1.307397e+02  -3.888167e+02   4.496905e+02  -3.931968e+06   2.058062e+06   6.168400e+07  -3.884477e+06   3.950730e+06   1.205518e+05  -3.932435e+06   8.651774e+05  -4.111621e+06  -8.632947e+06   2.058298e+06  -5.776239e+06   1.201328e+07   6.016867e+06   6.167932e+07  -3.931629e+06   8.649453e+05  -4.111432e+06  -8.632874e+06   2.059716e+06  -5.776484e+06   1.201357e+07   6.016564e+06   6.168237e+07   1.010153e+00  -5.680713e-03   1.747226e-03   1.870060e-02   1.012951e+00   1.466637e-02   3.663364e-02  -2.983267e-02   9.241311e-01   9.997645e-01  -1.168845e-02  -1.828678e-02   1.210427e-02   9.996669e-01   2.279590e-02   1.801424e-02  -2.301188e-02   9.995729e-01   1.010801e+00   1.013366e+00   9.240388e-01   6.044243e-03   1.857186e-02  -6.624928e-03   1.105013e-02   1.349568e-02  -7.288175e-02   6.055761e-03   1.794676e-02  -6.361458e-03  -1.611198e-02   6.129521e-02   9.081376e-03   1.274009e-02  -8.512980e-02   6.641853e-03   2.236347e-02  -9.394679e-03  -2.110278e-02   7.033672e-02  -1.757939e-01  -3.171585e-02  -1.211486e-02   4.731683e-01   8.836547e-02   5.726107e-02   2.792228e-01  -3.727774e-01  -5.216247e-01  -1.757939e-01   8.836547e-02  -5.216247e-01   2.207262e-01   1.335540e-01  -1.577581e-01  -2.524421e-01  -1.456688e-01   2.150192e-01   5.766274e+03   6.427046e+07   6.426591e+07   6.426886e+07   1.703916e+00   1.703916e+00   8.695127e-01   7.026329e-01   5.122102e-01  -2.890510e+03   3.520477e+03  -5.158906e+03  -2.277882e+03  -1.234741e+03   1.143043e-01  -1.671557e-01   9.792821e-01   1.920476e-01   9.708666e-01   1.433030e-01  -9.747062e-01   1.716887e-01   1.430761e-01  -1.245929e+07   8.134046e+06   6.413534e+07   8.120584e-01   5.561776e-01  -1.767134e-01   5.599334e-01  -8.278965e-01  -3.258853e-02   1.644254e-01   7.248391e-02   9.837227e-01  -6.389360e-01  -1.912226e-01   2.211055e-01   3.961663e-01  -3.078633e-01  -8.650274e-01  -7.970050e-01   3.524695e-01  -4.904572e-01   4.558895e-01   8.837338e-01  -1.057320e-01
   1.498795e-02   1.499948e-02   4.626062e-03   1.485774e+03   7.835819e-01   2.785664e-01   4.144509e-01   3.069827e-01   1.207495e-02  -3.634869e-02  -2.033646e-02  -1.015330e+03  -2.164786e+03  -2.069487e+03  -3.308355e+02   2.725639e+01  -2.501984e+02   3.310666e+06   1.834947e+06  -1.069542e+07   6.239168e+06  -1.300409e+05  -8.653539e+04   3.309230e+06   7.078595e+06   4.798330e+05   5.397123e+06   1.834612e+06   3.135998e+06  -7.385736e+05  -3.309676e+06  -1.069807e+07   3.310473e+06   7.078936e+06   4.799247e+05   5.397592e+06   1.837262e+06   3.136369e+06  -7.387321e+05  -3.309434e+06  -1.069554e+07   9.951780e-01  -1.004096e-02  -9.065364e-05  -1.317287e-02   9.917176e-01   9.037258e-03   1.669257e-02   3.814095e-03   9.813613e-01   9.999627e-01   1.625567e-03  -8.478725e-03  -1.603482e-03   9.999953e-01   2.610857e-03   8.482930e-03  -2.597164e-03   9.999606e-01   9.953036e-01   9.916868e-01   9.813470e-01  -1.159843e-02   8.219677e-03   6.488312e-03  -4.584313e-03  -8.190377e-03  -1.842418e-02  -1.149632e-02   8.086088e-03   6.353162e-03  -1.039962e-02   1.964549e-02  -5.230691e-03  -8.620455e-03  -1.925299e-02  -1.195825e-02   8.799685e-03   6.767967e-03  -1.103471e-02   2.064840e-02  -5.660522e-01  -4.066218e-01   3.084601e-01  -2.670414e-01  -9.979630e-02   5.467295e-01   3.094700e-01  -6.374549e-01  -5.583684e-01  -5.660522e-01  -9.979630e-02  -5.583684e-01  -3.368316e-01   3.089650e-01  -4.536274e-02  -6.979022e-02  -5.049165e-04   5.920922e-01   3.221401e+03   1.515100e+07   1.515141e+07   1.515057e+07   1.713943e+00   1.713943e+00   1.332285e+00   1.031550e+00   8.431419e-01  -1.749867e+03   1.352185e+03  -2.364938e+03  -2.013063e+03  -8.716006e+02   1.955247e-01   8.526144e-01   4.845810e-01  -2.755024e-01  -4.264661e-01   8.615249e-01   9.412059e-01  -3.019526e-01   1.515126e-01  -1.154220e+07  -2.427295e+06   8.419682e+06   4.540901e-02  -2.571362e-01  -9.653077e-01  -6.835303e-01   6.966902e-01  -2.177365e-01   7.285083e-01   6.697042e-01  -1.441243e-01  -9.308071e-01  -4.247772e-01   1.313675e-01  -7.563036e-01  -2.741246e-01   5.940207e-01   4.019682e-01   5.216673e-01   7.525190e-01   5.161652e-01  -8.079102e-01   2.843494e-01
   1.498795e-02   1.499948e-02   1.387167e-02   1.348660e+03   9.649129e-01   3.512824e-01   3.922384e-01   2.564792e-01  -6.095346e-02   8.578665e-03  -1.606083e-02  -1.281383e+03  -9.388089e+02  -6.960103e+02   3.110326e+01  -2.624074e+02  -1.668823e+02  -7.926750e+06   3.325880e+06   2.415473e+06  -6.632670e+06  -9.968160e+05   7.659460e+04  -7.926673e+06  -5.379192e+06  -7.323777e+05  -7.885992e+06   3.325071e+06   1.922940e+04  -1.259803e+06   1.344061e+05   2.416983e+06  -7.927323e+06  -5.379170e+06  -7.325072e+05  -7.885983e+06   3.324595e+06   1.916749e+04  -1.259940e+06   1.342987e+05   2.416630e+06   1.009149e+00  -5.719268e-03  -1.634566e-02  -8.899201e-04   9.962997e-01   2.645230e-03   1.635581e-02  -1.390687e-02   9.983527e-01   9.998645e-01  -2.386067e-03  -1.629029e-02   2.520713e-03   9.999628e-01   8.249876e-03   1.627000e-02  -8.289821e-03   9.998333e-01   1.009276e+00   9.963915e-01   9.984744e-01  -3.433372e-03  -9.358672e-05  -5.592031e-03   9.325295e-03  -3.580429e-03  -1.508844e-03  -3.442840e-03  -8.434964e-05  -5.577516e-03   1.412007e-03   1.101556e-02   9.148360e-03  -3.803142e-03  -1.483397e-03  -3.282126e-03   9.410325e-05  -5.672435e-03   1.287274e-03   1.099397e-02   1.262289e-01  -1.652535e-02  -4.714968e-01   3.145439e-02  -5.110818e-01   4.581937e-01   6.121080e-01  -1.582523e-01   8.921611e-01   1.262289e-01  -5.110818e-01   8.921611e-01   7.464521e-03   7.030559e-02   1.499707e-01  -2.398987e-02  -5.418024e-01   3.082230e-01   1.790968e+03   1.315298e+07   1.315282e+07   1.315303e+07   1.734495e+00   1.734495e+00   1.380697e+00   1.062106e+00   8.821868e-01  -9.720673e+02   7.828700e+02  -1.395602e+03  -1.024419e+03  -4.961809e+02  -9.071557e-01  -1.474173e-01  -3.941277e-01   2.920004e-01  -8.949472e-01  -3.373504e-01   3.029922e-01   4.211148e-01  -8.549024e-01  -1.206545e+07   2.396300e+06   7.483757e+06  -8.878583e-01  -4.542767e-01  -7.307701e-02  -1.563948e-03  -1.558422e-01   9.877807e-01  -4.601143e-01   8.771236e-01   1.376553e-01  -5.269308e-01   1.198865e-01   9.143525e-01  -5.292311e-05   9.944624e-01  -1.050929e-01  -9.960004e-01   9.337513e-03   8.885964e-02  -8.934887e-02  -1.046773e-01  -9.904845e-01
