     VARIABLES=
              x              y              z      nomin_den    nomin_voidr      fabric_xx      fabric_yy      fabric_zz      fabric_xy      fabric_xz      fabric_yz       sigma_xx       sigma_yy       sigma_zz       sigma_xy       sigma_xz       sigma_yz    sigmaDot_xx    sigmaDot_yy    sigmaDot_zz    sigmaDot_xy    sigmaDot_xz    sigmaDot_yz       Oldro_xx       Oldro_xy       Oldro_xz       Oldro_yx       Oldro_yy       Oldro_yz       Oldro_zx       Oldro_zy       Oldro_zz       Trues_xx       Trues_xy       Trues_xz       Trues_yx       Trues_yy       Trues_yz       Trues_zx       Trues_zy       Trues_zz           F_xX           F_xY           F_xZ           F_yX           F_yY           F_yZ           F_zX           F_zY           F_zZ           R_xX           R_xY           R_xZ           R_yX           R_yY           R_yZ           R_zX           R_zY           R_zZ           U_xX           U_yY           U_zZ           U_xY           U_xZ           U_yZ       Green_xx       Green_yy       Green_zz       Green_xy       Green_xz       Green_yz      Green_vol      Green_shr       Euler_xx       Euler_yy       Euler_zz       Euler_xy       Euler_xz       Euler_yz      Euler_vol      Euler_shr           l_xx           l_xy           l_xz           l_yx           l_yy           l_yz           l_zx           l_zy           l_zz           d_xx           d_yy           d_zz           d_xy           d_xz           d_yz           w_xy           w_xz           w_yz     norm_sigma  norm_sigmaDot     norm_Oldro     norm_Trues         norm_F         norm_U         norm_l         norm_d         norm_w              p              q        sigma_1        sigma_2        sigma_3     sigma_1_v1     sigma_1_v2     sigma_1_v3     sigma_2_v1     sigma_2_v2     sigma_2_v3     sigma_3_v1     sigma_3_v2     sigma_3_v3     sigmaDot_1     sigmaDot_2     sigmaDot_3  sigmaDot_1_v1  sigmaDot_1_v2  sigmaDot_1_v3  sigmaDot_2_v1  sigmaDot_2_v2  sigmaDot_2_v3  sigmaDot_3_v1  sigmaDot_3_v2  sigmaDot_3_v3            d_1            d_2            d_3         d_1_v1         d_1_v2         d_1_v3         d_2_v1         d_2_v2         d_2_v3         d_3_v1         d_3_v2         d_3_v3
ZONE I=2, J=2, K=2, DATAPACKING=POINT, STRANDID=5, SOLUTIONTIME=24
   4.996413e-03   5.009146e-03   4.584449e-03   1.713814e+03   5.462592e-01   4.064064e-01   3.092171e-01   2.843765e-01   3.056702e-02  -8.588455e-03   3.814708e-02  -1.569343e+03  -1.223553e+03  -1.662929e+03   5.720989e+01   5.629926e+01  -2.029904e+02  -3.305818e+04  -4.783484e+05   2.045960e+06   1.875152e+06   2.661322e+06   8.646788e+05  -3.334554e+04   1.224713e+06   6.229398e+06   2.525917e+06  -4.784344e+05   6.171491e+05  -9.069975e+05   1.111985e+06   2.046320e+06  -3.333981e+04   1.224713e+06   6.229398e+06   2.525917e+06  -4.784299e+05   6.171498e+05  -9.069977e+05   1.111986e+06   2.046326e+06   9.912951e-01   1.629281e-02  -1.453146e-02   3.766580e-03   1.009239e+00  -2.852287e-03  -1.500886e-02  -2.024205e-02   9.771649e-01   9.999808e-01   6.197136e-03   2.614927e-04  -6.199178e-03   9.999429e-01   8.705893e-03  -2.075262e-04  -8.707347e-03   9.999621e-01   9.912558e-01   1.009459e+00   9.770992e-01   1.004024e-02  -1.471628e-02  -1.145069e-02  -8.547320e-03   9.619318e-03  -2.246477e-02   1.012808e-02  -1.454092e-02  -1.144761e-02  -7.130923e-03   3.063584e-02  -9.235588e-03   8.663101e-03  -2.405306e-02   9.755480e-03  -1.543547e-02  -1.166723e-02  -8.208515e-03   3.136719e-02  -8.834410e-02   1.906555e-01  -1.042657e-01  -3.621169e-02  -3.458183e-02  -1.349410e-02   6.045270e-03  -8.831753e-02   1.192798e-01  -8.834410e-02  -3.458183e-02   1.192798e-01   7.722193e-02  -4.911023e-02  -5.090582e-02   1.134336e-01  -5.515550e-02   3.741172e-02   2.611642e+03   7.317235e+06   7.317312e+06   7.317313e+06   1.719655e+00   1.719655e+00   2.824518e-01   2.125115e-01   1.860589e-01  -1.485275e+03   5.562637e+02  -1.775146e+03  -1.540649e+03  -1.140029e+03   3.605537e-01  -3.581188e-01  -8.612503e-01   9.303395e-01   7.189472e-02   3.595824e-01   6.685388e-02   9.309039e-01  -3.590940e-01  -3.183795e+06   2.247061e+06   2.471288e+06   6.484018e-01  -7.139620e-01   2.642599e-01   7.520204e-01   5.466474e-01  -3.682961e-01  -1.184924e-01  -4.375327e-01  -8.913612e-01  -1.437061e-01  -1.570589e-02   1.557659e-01   8.252640e-01  -5.629400e-01   4.514305e-02   4.838980e-01   7.460697e-01   4.574087e-01   2.911735e-01   3.556383e-01  -8.881100e-01
   4.996413e-03   5.009146e-03   1.374690e-02   1.530338e+03   7.316441e-01   3.274797e-01   4.018499e-01   2.706704e-01  -3.148366e-02  -2.559233e-02   2.290083e-02  -1.011295e+03  -1.380918e+03  -6.704210e+02   9.995662e+01   5.520153e+01  -1.035273e+02   3.031529e+06   4.313869e+05  -4.914888e+05   5.774341e+03   8.070090e+06  -3.346158e+06   3.031498e+06  -1.295509e+06   1.171192e+07   1.306536e+06   4.315697e+05   2.163183e+06   4.428189e+06  -8.854928e+06  -4.913716e+05   3.031407e+06  -1.295504e+06   1.171193e+07   1.306549e+06   4.314462e+05   2.163176e+06   4.428188e+06  -8.854939e+06  -4.914315e+05   9.467221e-01   1.483912e-02  -5.233957e-02  -1.983995e-02   1.026585e+00  -3.884362e-02   7.110103e-02  -9.325479e-02   1.318977e+00   9.984207e-01   1.647175e-02  -5.371043e-02  -1.522235e-02   9.996059e-01   2.358852e-02   5.407780e-02  -2.273366e-02   9.982779e-01   9.493739e-01   1.028545e+00   1.318600e+00  -5.854355e-03   1.966174e-02  -6.967560e-02  -4.913415e-02   3.139645e-02   3.719737e-01  -6.474690e-03   2.250011e-02  -8.182692e-02   1.180787e-01   2.761935e-01  -5.602892e-02   2.071438e-02   2.114140e-01  -9.482146e-04  -1.065031e-03  -4.055921e-02   5.869982e-02   1.657737e-01   1.358250e-03  -7.381672e-02   4.432273e-01  -2.080367e-01   6.811940e-02  -2.267655e-01  -2.934893e-01   2.807797e-01   1.990518e-02   1.358250e-03   6.811940e-02   1.990518e-02  -1.409267e-01   7.486899e-02   2.700710e-02   6.711001e-02   3.683583e-01  -2.537726e-01   1.854552e+03   1.590203e+07   1.590189e+07   1.590188e+07   1.925739e+00   1.925739e+00   6.830906e-01   2.396424e-01   6.396751e-01  -1.020878e+03   6.984391e+02  -1.447427e+03  -9.693068e+02  -6.459007e+02   3.063265e-01  -9.402687e-01  -1.485224e-01   9.472425e-01   2.856274e-01   1.454254e-01   9.431688e-02   1.852343e-01  -9.781577e-01  -1.019777e+07   3.553742e+06   9.615460e+06  -3.014262e-01   6.319136e-01   7.140220e-01  -8.883541e-01  -4.581486e-01   3.044318e-02  -3.463657e-01   6.251280e-01  -6.994611e-01  -1.450413e-01   5.045065e-02   1.839735e-01  -7.316459e-01  -5.369263e-01   4.200053e-01   2.204971e-01   3.966043e-01   8.911151e-01  -6.450390e-01   7.445906e-01  -1.717832e-01
   4.996413e-03   1.499383e-02   4.584449e-03   1.425947e+03   8.584140e-01   2.806447e-01   3.272162e-01   3.921391e-01  -2.770996e-02  -4.723260e-03  -3.600683e-03  -1.063959e+03  -1.293462e+03  -2.090498e+03   3.406133e+02   2.224489e+02  -1.491720e+02  -1.058490e+06   2.733844e+06  -5.117777e+05  -1.436802e+06   2.453072e+06  -4.660419e+06  -1.058505e+06   3.074739e+05   1.316455e+07  -3.180595e+06   2.733341e+06   7.130328e+05  -8.257675e+06  -1.003405e+07  -5.117508e+05  -1.058384e+06   3.074382e+05   1.316452e+07  -3.180637e+06   2.733489e+06   7.130401e+05  -8.257696e+06  -1.003402e+07  -5.115123e+05   1.004141e+00   8.929839e-03   1.325331e-02   1.078534e-02   9.894252e-01   6.639375e-03  -4.114458e-02   1.359055e-02   9.696778e-01   9.996193e-01  -9.938153e-04   2.757469e-02   1.095249e-03   9.999927e-01  -3.663634e-03  -2.757084e-02   3.692440e-03   9.996130e-01   1.004905e+00   9.894593e-01   9.696437e-01   9.635403e-03  -1.347930e-02   1.020663e-02   5.054071e-03  -1.038664e-02  -2.975259e-02   9.539461e-03  -1.325860e-02   9.932983e-03  -1.169505e-02   2.988011e-02   3.613248e-03  -1.108490e-02  -3.137918e-02   1.031512e-02  -1.514533e-02   1.085643e-02  -1.295028e-02   3.188253e-02   8.292096e-02   1.623709e-01   1.823350e-01  -2.923184e-02  -2.054703e-01   2.809029e-02  -5.539201e-02  -1.112632e-01   8.481008e-03   8.292096e-02  -2.054703e-01   8.481008e-03   6.656953e-02   6.347149e-02  -4.158643e-02   9.580137e-02   1.188635e-01   6.967672e-02   2.751308e+03   1.901969e+07   1.901971e+07   1.901969e+07   1.711675e+00   1.711675e+00   3.547781e-01   2.637138e-01   2.373237e-01  -1.482640e+03   1.242897e+03  -2.225006e+03  -1.430205e+03  -7.927084e+02   2.486797e-01  -3.276293e-01  -9.114919e-01  -5.353044e-01   7.377887e-01  -4.112384e-01   8.072221e-01   5.901923e-01   8.091672e-03  -1.440971e+07   3.431232e+06   1.214205e+07  -5.389172e-01  -4.977396e-01  -6.795760e-01  -7.938159e-01   5.700003e-01   2.120282e-01  -2.818237e-01  -6.537239e-01   7.022966e-01  -2.327369e-01  -5.231259e-03   1.238998e-01  -2.444338e-01   9.427570e-01   2.268509e-01   3.902950e-01   3.098151e-01  -8.669973e-01  -8.876497e-01  -1.233847e-01  -4.436826e-01
   4.996413e-03   1.499383e-02   1.374690e-02   1.488243e+03   7.806236e-01   3.522121e-01   3.168687e-01   3.309192e-01  -3.263097e-03   8.715994e-03   5.307709e-02  -1.751787e+03  -2.485172e+03  -4.098538e+03   2.516552e+02  -5.509760e+02  -4.964569e+02  -1.510986e+06   6.637576e+06   9.901562e+05  -1.531848e+06   1.860792e+06   2.706493e+06  -1.511629e+06   1.215943e+06   3.298282e+06  -4.279019e+06   6.636642e+06   5.111482e+06   4.217976e+05   3.012550e+05   9.888709e+05  -1.510819e+06   1.215820e+06   3.298542e+06  -4.279128e+06   6.637789e+06   5.111704e+06   4.220472e+05   3.014923e+05   9.907640e+05   1.005329e+00   1.518198e-02  -3.652849e-03  -1.142834e-02   9.916644e-01   2.218526e-02   1.785738e-02  -4.705506e-03   1.034967e+00   9.998537e-01   1.348654e-02  -1.052058e-02  -1.334517e-02   9.998212e-01   1.339361e-02   1.069933e-02  -1.325125e-02   9.998550e-01   1.005526e+00   9.917543e-01   1.035153e+00   1.895479e-03   7.125075e-03   8.417420e-03   5.568005e-03  -8.174499e-03   3.583123e-02   1.922888e-03   7.277970e-03   8.537416e-03   1.107491e-02   2.913015e-02   5.310040e-03  -8.282310e-03   3.313372e-02   1.632888e-03   6.482370e-03   8.560103e-03   1.005382e-02   2.741441e-02  -9.009714e-02   1.425064e-01  -2.316304e-01  -2.893376e-02  -2.077954e-01   8.408243e-02   1.384366e-01  -9.407469e-02  -1.640101e-01  -9.009714e-02  -2.077954e-01  -1.640101e-01   5.678634e-02  -4.659690e-02  -4.996131e-03   8.572010e-02  -1.850335e-01   8.907856e-02   5.222153e+03   1.021728e+07   1.021621e+07   1.021727e+07   1.751128e+00   1.751128e+00   4.336798e-01   2.983916e-01   3.147072e-01  -2.778499e+03   2.481819e+03  -4.329935e+03  -2.500703e+03  -1.504859e+03  -1.775803e-01  -2.428039e-01  -9.536831e-01   3.981194e-01  -9.039691e-01   1.560152e-01  -8.999812e-01  -3.519745e-01   2.571921e-01  -3.403916e+06   1.047058e+06   8.473605e+06   9.126302e-01   3.923724e-01  -1.146738e-01  -1.112270e-01  -3.159109e-02  -9.932928e-01   3.933633e-01  -9.192638e-01  -1.481143e-02  -2.335883e-01  -1.790045e-01  -4.930980e-02  -4.194462e-01   8.813090e-01  -2.176221e-01  -2.539832e-01  -3.440884e-01  -9.039335e-01   8.715259e-01   3.238791e-01  -3.681642e-01
   1.496917e-02   5.009146e-03   4.584449e-03   1.657843e+03   5.984628e-01   3.229370e-01   3.364825e-01   3.405805e-01  -2.409116e-02   2.779132e-02  -1.709609e-02  -1.683618e+03  -1.710985e+03  -1.411179e+03  -9.161398e+01  -3.010764e+02  -1.937885e+02   5.883931e+05   9.692212e+04   4.809729e+06  -8.995922e+04  -1.154794e+06   1.023765e+06   5.885315e+05   5.964743e+05  -5.710965e+04  -7.766647e+05   9.679345e+04   1.904180e+06  -2.252572e+06   1.432302e+05   4.809875e+06   5.884096e+05   5.964685e+05  -5.713573e+04  -7.766723e+05   9.666955e+04   1.904168e+06  -2.252590e+06   1.432147e+05   4.809773e+06   1.059648e+00   1.999974e-02   8.484591e-03   5.406853e-02   1.019445e+00   1.743755e-02   3.504425e-02  -1.926732e-02   9.890278e-01   9.997804e-01  -1.607206e-02  -1.344646e-02   1.631596e-02   9.997007e-01   1.822990e-02   1.314945e-02  -1.844529e-02   9.997434e-01   1.060758e+00   1.019174e+00   9.889778e-01   3.637522e-02   2.177241e-02  -9.469312e-04   6.350253e-02   2.001960e-02  -1.072398e-02   3.781868e-02   2.229662e-02  -5.548026e-04   2.426605e-02   6.651935e-02   5.174307e-02   1.788153e-02  -1.127429e-02   3.347571e-02   2.066944e-02  -1.788819e-03   1.945010e-02   5.826023e-02   4.124228e-02   9.032035e-03  -3.439593e-03  -9.080624e-02  -3.325122e-02   4.501898e-03  -4.365805e-02  -2.371076e-02   6.442011e-02   4.124228e-02  -3.325122e-02   6.442011e-02  -4.088710e-02  -2.354882e-02  -9.604431e-03   4.991914e-02   2.010923e-02   1.410633e-02   2.834551e+03   5.759498e+06   5.759634e+06   5.759538e+06   1.773583e+00   1.773583e+00   1.333574e-01   1.076736e-01   7.868024e-02  -1.601927e+03   6.531461e+02  -1.982469e+03  -1.594936e+03  -1.228378e+03  -6.128171e-01  -6.195545e-01  -4.905175e-01  -6.850945e-01   7.258999e-01  -6.094985e-02  -3.938283e-01  -2.986997e-01   8.692973e-01  -8.540016e+05   5.288357e+05   5.820210e+06  -7.624463e-01  -5.791344e-01  -2.885810e-01   5.054679e-01  -8.115279e-01   2.931291e-01   4.039526e-01  -7.762681e-02  -9.114803e-01  -5.420379e-02   4.542047e-02   8.119449e-02  -4.212143e-01  -8.934517e-01  -1.559567e-01  -6.672971e-01   4.217496e-01  -6.138745e-01  -6.142419e-01   1.545033e-01   7.738447e-01
   1.496917e-02   5.009146e-03   1.374690e-02   1.415978e+03   8.714978e-01   3.226257e-01   3.343402e-01   3.430342e-01  -6.930742e-03   3.680515e-02  -5.005599e-02  -1.516136e+03  -1.684527e+03  -2.089315e+03   1.133894e+01  -2.548955e+02  -6.024725e+01   2.103934e+05  -1.584145e+06   2.639099e+06   1.410186e+05   4.372237e+06   8.610442e+05   2.106987e+05  -9.946118e+05   8.574424e+06   1.276842e+06  -1.584225e+06  -3.652973e+06   1.702908e+05   5.374560e+06   2.639675e+06   2.103724e+05  -9.945993e+05   8.574366e+06   1.276834e+06  -1.584587e+06  -3.652986e+06   1.702398e+05   5.374548e+06   2.639225e+06   1.008307e+00   2.637440e-03  -5.753400e-02   3.130021e-02   1.020522e+00  -1.437925e-03   3.954865e-02  -4.281051e-02   9.143569e-01   9.986010e-01  -1.419992e-02  -5.093527e-02   1.531081e-02   9.996519e-01   2.148628e-02   5.061243e-02  -2.223608e-02   9.984708e-01   1.009377e+00   1.021081e+00   9.158583e-01   1.609202e-02  -1.119769e-02  -2.095216e-02   9.613411e-03   2.165265e-02  -8.031961e-02   1.645440e-02  -1.094768e-02  -2.038163e-02  -1.635118e-02   7.221464e-02   9.185161e-03   1.879316e-02  -9.702893e-02   1.588522e-02  -6.680575e-03  -2.484555e-02  -2.301687e-02   8.202186e-02   8.794719e-02  -1.180468e-01   7.044801e-02   2.107498e-01  -1.828044e-02  -1.091072e-01  -5.222907e-02  -5.018376e-02   1.455345e-01   8.794719e-02  -1.828044e-02   1.455345e-01   4.635150e-02   9.109467e-03  -7.964550e-02  -1.643983e-01   6.133854e-02  -2.946174e-02   3.105466e+03   1.131002e+07   1.131024e+07   1.131013e+07   1.703494e+00   1.703494e+00   3.312300e-01   2.154040e-01   2.516236e-01  -1.763326e+03   6.656809e+02  -2.183656e+03  -1.676456e+03  -1.429864e+03  -3.382859e-01  -1.315816e-01  -9.317987e-01  -6.068038e-03  -9.898506e-01   1.419823e-01  -9.410238e-01   5.368479e-02   3.340541e-01  -5.412728e+06   2.553773e+05   6.422698e+06   1.699885e-01  -8.212703e-01   5.446274e-01   9.756232e-01   6.241714e-02  -2.103886e-01  -1.387919e-01  -5.671148e-01  -8.118606e-01  -6.473495e-02   1.010701e-01   1.788662e-01   2.911817e-01  -8.903931e-01  -3.498763e-01   9.503642e-01   2.273092e-01   2.124582e-01   1.096412e-01   3.943738e-01  -9.123859e-01
   1.496917e-02   1.499383e-02   4.584449e-03   1.520614e+03   7.427172e-01   3.297426e-01   3.350892e-01   3.351682e-01   5.408630e-03   2.951142e-03  -3.417428e-02  -8.180774e+02  -1.469112e+03  -7.317228e+02   2.657631e+01   2.670119e+02   3.626344e-01   1.234821e+06   3.140510e+05   1.228951e+06   1.973709e+06  -1.218749e+06   3.028821e+06   1.234382e+06  -7.139961e+05  -2.600451e+06   4.662775e+06   3.137447e+05   3.396755e+05   1.635130e+05   5.718136e+06   1.228933e+06   1.234597e+06  -7.139941e+05  -2.600525e+06   4.662759e+06   3.141313e+05   3.396706e+05   1.634465e+05   5.718141e+06   1.229125e+06   9.993892e-01   1.818176e-02  -1.118485e-02  -2.133730e-03   9.861374e-01   3.269418e-02   1.812190e-02   3.183033e-03   9.849322e-01   9.998347e-01   1.050228e-02  -1.484164e-02  -1.027775e-02   9.998328e-01   1.512452e-02   1.499800e-02  -1.496948e-02   9.997755e-01   9.995178e-01   9.861158e-01   9.853715e-01   8.091218e-03   3.252986e-03   1.782732e-02  -4.441085e-04  -1.359619e-02  -1.435726e-02   8.062093e-03   3.300531e-03   1.758633e-02  -9.465854e-03   2.439559e-02  -5.280327e-04  -1.438963e-02  -1.593922e-02   7.810411e-03   3.404931e-03   1.865463e-02  -1.028563e-02   2.562810e-02  -1.865022e-01   4.212507e-01   2.094525e-01   5.903945e-02  -1.031859e-01  -2.317567e-02   1.056606e-01   8.191798e-02   2.652331e-02  -1.865022e-01  -1.031859e-01   2.652331e-02   2.401451e-01   1.575566e-01   2.937116e-02   1.811056e-01   5.189592e-02  -5.254682e-02   1.873607e+03   8.061103e+06   8.061341e+06   8.061434e+06   1.715577e+00   1.715577e+00   5.379162e-01   4.613531e-01   2.765994e-01  -1.006304e+03   8.311782e+02  -1.477349e+03  -1.023513e+03  -5.180500e+02  -1.156001e-01   9.912916e-01   6.306805e-02  -7.537953e-01  -1.288988e-01   6.443429e-01   6.468611e-01   2.694572e-02   7.621317e-01  -6.544839e+06   1.072573e+06   8.250089e+06  -4.277805e-01   7.323874e-01  -5.297287e-01  -7.747174e-01   4.823574e-03   6.322892e-01  -4.656359e-01  -6.808711e-01  -5.653298e-01  -4.137545e-01  -4.782129e-02   1.984111e-01  -7.788118e-01   5.795094e-01   2.400440e-01   2.350637e-01   6.244415e-01  -7.448610e-01  -5.815473e-01  -5.236809e-01  -6.225440e-01
   1.496917e-02   1.499383e-02   1.374690e-02   1.364382e+03   9.422719e-01   3.399807e-01   2.945143e-01   3.655050e-01  -6.290211e-02  -2.810540e-02   6.007247e-04  -1.748502e+02  -1.058449e+02  -1.844551e+02   2.932883e+01   2.156925e+01   2.361037e+01   3.291401e+05   3.933386e+05  -4.263127e+05   1.409824e+06  -5.946922e+05   2.880093e+05   3.291433e+05  -1.191739e+05  -4.772154e+05   2.938843e+06   3.933473e+05  -2.031031e+05  -7.123973e+05   7.790632e+05  -4.262332e+05   3.291174e+05  -1.191706e+05  -4.772110e+05   2.938849e+06   3.933316e+05  -2.030991e+05  -7.123953e+05   7.790662e+05  -4.262605e+05   1.019443e+00  -1.524584e-02  -5.536817e-02   4.664984e-03   9.218624e-01  -1.105452e-02   1.023825e-02   1.594236e-02   1.020624e+00   9.994321e-01  -1.027089e-02  -3.209195e-02   9.824995e-03   9.998534e-01  -1.402121e-02   3.223126e-02   1.369794e-02   9.993866e-01   1.019240e+00   9.221022e-01   1.021929e+00  -5.666043e-03  -2.254935e-02   3.496227e-03   1.969529e-02  -7.484159e-02   2.243022e-02  -5.539283e-03  -2.302343e-02   3.462271e-03  -1.090536e-02   6.967066e-02   1.942382e-02  -8.830955e-02   1.921361e-02  -4.824595e-03  -2.134443e-02   1.740088e-03  -1.655737e-02   7.609802e-02  -3.910264e-02  -1.168500e-01  -2.313043e-01   7.307555e-02   1.472150e-02  -2.080436e-01  -4.030357e-01   3.078228e-02   1.723260e-01  -3.910264e-02   1.472150e-02   1.723260e-01  -2.188723e-02  -3.171700e-01  -8.863066e-02  -9.496278e-02   8.586569e-02  -1.194129e-01   2.825422e+02   3.237118e+06   3.237154e+06   3.237158e+06   1.713058e+00   1.713058e+00   5.573195e-01   4.993040e-01   2.475896e-01  -1.550501e+02   1.058349e+02  -1.944618e+02  -1.860267e+02  -8.466177e+01  -7.280089e-01   1.485462e-01   6.692810e-01  -5.618180e-01   4.302059e-01  -7.065999e-01   3.928914e-01   8.904251e-01   2.297378e-01  -3.008330e+06   3.455141e+03   3.301041e+06  -6.559492e-01   6.532914e-01  -3.780754e-01   2.792632e-01  -2.552985e-01  -9.256537e-01   7.012437e-01   7.127643e-01   1.497740e-02  -2.841897e-01   2.219803e-02   4.099365e-01  -7.776235e-01  -2.303978e-01  -5.849945e-01   2.749037e-01  -9.613810e-01   1.321116e-02   5.654464e-01   1.505438e-01  -8.109297e-01
