     VARIABLES=
              x              y              z      nomin_den    nomin_voidr      fabric_xx      fabric_yy      fabric_zz      fabric_xy      fabric_xz      fabric_yz       sigma_xx       sigma_yy       sigma_zz       sigma_xy       sigma_xz       sigma_yz    sigmaDot_xx    sigmaDot_yy    sigmaDot_zz    sigmaDot_xy    sigmaDot_xz    sigmaDot_yz       Oldro_xx       Oldro_xy       Oldro_xz       Oldro_yx       Oldro_yy       Oldro_yz       Oldro_zx       Oldro_zy       Oldro_zz       Trues_xx       Trues_xy       Trues_xz       Trues_yx       Trues_yy       Trues_yz       Trues_zx       Trues_zy       Trues_zz           F_xX           F_xY           F_xZ           F_yX           F_yY           F_yZ           F_zX           F_zY           F_zZ           R_xX           R_xY           R_xZ           R_yX           R_yY           R_yZ           R_zX           R_zY           R_zZ           U_xX           U_yY           U_zZ           U_xY           U_xZ           U_yZ       Green_xx       Green_yy       Green_zz       Green_xy       Green_xz       Green_yz      Green_vol      Green_shr       Euler_xx       Euler_yy       Euler_zz       Euler_xy       Euler_xz       Euler_yz      Euler_vol      Euler_shr           l_xx           l_xy           l_xz           l_yx           l_yy           l_yz           l_zx           l_zy           l_zz           d_xx           d_yy           d_zz           d_xy           d_xz           d_yz           w_xy           w_xz           w_yz     norm_sigma  norm_sigmaDot     norm_Oldro     norm_Trues         norm_F         norm_U         norm_l         norm_d         norm_w              p              q        sigma_1        sigma_2        sigma_3     sigma_1_v1     sigma_1_v2     sigma_1_v3     sigma_2_v1     sigma_2_v2     sigma_2_v3     sigma_3_v1     sigma_3_v2     sigma_3_v3     sigmaDot_1     sigmaDot_2     sigmaDot_3  sigmaDot_1_v1  sigmaDot_1_v2  sigmaDot_1_v3  sigmaDot_2_v1  sigmaDot_2_v2  sigmaDot_2_v3  sigmaDot_3_v1  sigmaDot_3_v2  sigmaDot_3_v3            d_1            d_2            d_3         d_1_v1         d_1_v2         d_1_v3         d_2_v1         d_2_v2         d_2_v3         d_3_v1         d_3_v2         d_3_v3
ZONE I=2, J=2, K=2, DATAPACKING=POINT, STRANDID=5, SOLUTIONTIME=15
   4.988720e-03   5.001793e-03   4.582777e-03   1.717750e+03   5.427162e-01   3.768210e-01   2.926404e-01   3.305387e-01   3.007569e-02   1.703390e-02   4.720212e-02  -3.177435e+03  -2.436108e+03  -4.259537e+03   4.049750e+02   1.474579e+02  -7.515213e+02  -5.175123e+06   8.984097e+05  -1.070912e+06   3.927477e+06  -1.118545e+06   1.813485e+06  -5.175029e+06   1.915590e+06  -4.602139e+06   5.938942e+06   8.990403e+05  -2.979693e+06   2.364028e+06   6.605356e+06  -1.071971e+06  -5.175223e+06   1.915616e+06  -4.602129e+06   5.938966e+06   8.988912e+05  -2.979737e+06   2.364036e+06   6.605308e+06  -1.072232e+06   9.954590e-01   1.237167e-02  -1.505853e-02   7.257172e-03   1.007280e+00  -3.135414e-03  -1.431451e-02  -1.581432e-02   9.778482e-01   9.999968e-01   2.506365e-03  -3.887104e-04  -2.503838e-03   9.999766e-01   6.370722e-03   4.046686e-04  -6.369728e-03   9.999796e-01   9.954318e-01   1.007388e+00   9.778142e-01   9.843164e-03  -1.465493e-02  -9.401710e-03  -4.401944e-03   7.507830e-03  -2.178815e-02   9.925932e-03  -1.450516e-02  -9.404272e-03  -6.227423e-03   2.862230e-02  -5.016168e-03   6.866098e-03  -2.331601e-02   9.535163e-03  -1.520868e-02  -9.554634e-03  -7.155360e-03   2.931863e-02   3.950179e-02   2.419014e-01  -1.329317e-01  -2.030157e-01   9.433548e-02   4.343200e-03  -8.047590e-02  -3.084601e-01  -7.263000e-02   3.950179e-02   9.433548e-02  -7.263000e-02   1.944290e-02  -1.067038e-01  -1.520584e-01   2.224585e-01  -2.622788e-02   1.564016e-01   5.973189e+03   1.212270e+07   1.212256e+07   1.212265e+07   1.721231e+00   1.721231e+00   4.845411e-01   2.924135e-01   3.863604e-01  -3.291027e+03   2.201610e+03  -4.595410e+03  -3.221618e+03  -2.056053e+03   1.806269e-01  -3.630859e-01  -9.140801e-01  -9.439348e-01   1.971173e-01  -2.648242e-01   2.763350e-01   9.106664e-01  -3.071248e-01  -9.240338e+06  -5.291848e+06   9.184560e+06  -7.339399e-01   6.161540e-01  -2.858085e-01   5.534850e-01   2.986545e-01  -7.774701e-01   3.936833e-01   7.288071e-01   5.602265e-01  -1.932166e-01   3.830962e-02   2.161143e-01  -3.491510e-01  -4.194904e-01  -8.379269e-01  -8.441858e-01   5.289517e-01   8.695048e-02  -4.067480e-01  -7.377248e-01   5.388118e-01
   4.988720e-03   5.001793e-03   1.376370e-02   1.450891e+03   8.264637e-01   3.133565e-01   3.415198e-01   3.451237e-01  -1.096807e-01  -7.895450e-03   2.773118e-02  -1.921800e+03  -1.627581e+03  -2.325831e+03   7.850482e+02  -2.199302e+02  -1.420217e+02   8.949379e+06   2.595098e+06   6.240771e+06  -4.247168e+05   6.568655e+06  -9.086468e+05   8.949333e+06  -6.705872e+05   7.522208e+06  -1.788394e+05   2.595633e+06   8.121790e+04   5.619075e+06  -1.900882e+06   6.241046e+06   8.948980e+06  -6.704462e+05   7.522167e+06  -1.786915e+05   2.595334e+06   8.119072e+04   5.619035e+06  -1.900907e+06   6.240618e+06   1.000774e+00   3.975543e-02   2.135272e-02  -1.871814e-03   9.824507e-01  -3.363364e-02  -1.326612e-02  -7.202307e-02   1.086713e+00   9.996258e-01   2.131091e-02   1.714894e-02  -2.162341e-02   9.995996e-01   1.824797e-02  -1.675320e-02  -1.861196e-02   9.996864e-01   1.000662e+00   9.842451e-01   1.086125e+00   1.970324e-02   3.866093e-03  -5.339099e-02   8.636929e-04  -1.401139e-02   9.126614e-02   1.945135e-02   3.507868e-03  -5.523146e-02   2.603948e-02   9.442725e-02   1.049322e-03  -2.341230e-02   7.420514e-02   1.935277e-02   4.721482e-03  -4.745030e-02   1.728072e-02   8.349242e-02   6.385686e-02   2.974823e-01   4.001751e-01  -2.142193e-01   6.939298e-02  -9.633731e-02   3.491703e-01  -4.035979e-01   5.076088e-02   6.385686e-02   6.939298e-02   5.076088e-02   4.163150e-02   3.746727e-01  -2.499676e-01   2.558508e-01   2.550243e-02   1.536303e-01   3.622471e+03   1.476401e+07   1.476610e+07   1.476561e+07   1.776580e+00   1.776580e+00   7.746531e-01   6.485854e-01   4.235853e-01  -1.958404e+03   1.582830e+03  -2.616923e+03  -2.343205e+03  -9.150848e+02   7.604833e-01  -5.768914e-01   2.980964e-01  -1.254714e-01   3.198673e-01   9.391176e-01   6.371202e-01   7.515858e-01  -1.708704e-01   7.191534e+05   3.532292e+06   1.353380e+07  -4.326961e-01   6.207860e-01   6.537575e-01  -4.674248e-01  -7.745547e-01   4.261210e-01   7.709009e-01  -1.212015e-01   6.253176e-01  -4.117960e-01   1.060776e-01   4.897291e-01   5.855797e-01  -4.130059e-01  -6.975117e-01  -5.516125e-01  -8.335442e-01   3.045914e-02  -5.939866e-01   3.669199e-01  -7.159258e-01
   4.988720e-03   1.500423e-02   4.582777e-03   1.409764e+03   8.797471e-01   2.623893e-01   2.672407e-01   4.703700e-01  -4.241559e-02  -2.580665e-02   8.473992e-03  -1.626586e+03  -1.732639e+03  -4.650854e+03   7.467275e+02  -5.939641e+01   4.748022e+02  -1.247033e+06  -4.274816e+06   4.682396e+05   1.283827e+05  -2.184311e+06   2.131314e+06  -1.246380e+06  -2.750433e+06  -3.407052e+06   3.007893e+06  -4.274702e+06   2.586264e+06  -9.602940e+05   1.675086e+06   4.654473e+05  -1.246496e+06  -2.750382e+06  -3.407061e+06   3.007948e+06  -4.274825e+06   2.586303e+06  -9.602932e+05   1.675114e+06   4.651171e+05   1.045172e+00  -4.310535e-03   9.859454e-03   1.371728e-02   9.987501e-01   9.307289e-03  -1.246053e-02   7.968248e-03   9.820177e-01   9.998997e-01  -8.870038e-03   1.104256e-02   8.862797e-03   9.999605e-01   7.045168e-04  -1.104837e-02  -6.065782e-04   9.999388e-01   1.045326e+00   9.987440e-01   9.820730e-01   4.453581e-03  -9.087400e-04   8.623797e-03   4.636375e-02  -1.208063e-03  -1.772872e-02   4.547798e-03  -9.019860e-04   8.539059e-03   9.142322e-03   4.002867e-02   4.228554e-02  -1.311117e-03  -1.852225e-02   4.672578e-03  -1.683794e-03   8.813817e-03   7.484060e-03   3.803095e-02   2.647930e-01   1.481446e-01   1.107212e-01   2.657988e-01   1.124785e-01  -1.271577e-01   9.860370e-02  -4.720067e-02  -3.062651e-01   2.647930e-01   1.124785e-01  -3.062651e-01   2.069717e-01   1.046625e-01  -8.717917e-02  -5.882712e-02   6.058752e-03  -3.997851e-02   5.373382e+03   7.661356e+06   7.660308e+06   7.660403e+06   1.747814e+00   1.747814e+00   5.563630e-01   5.471275e-01   1.009517e-01  -2.670027e+03   3.341451e+03  -4.709449e+03  -2.426416e+03  -8.742145e+02  -3.281115e-02   1.435829e-01  -9.890942e-01  -6.943001e-01   7.085887e-01   1.258949e-01   7.189373e-01   6.908589e-01   7.643998e-02  -6.651632e+06   5.974163e+05   1.000606e+06  -5.044262e-01   8.228271e-01  -2.617437e-01  -8.633968e-01  -4.841726e-01   1.418551e-01   1.000692e-02  -2.975441e-01  -9.546556e-01  -3.604787e-01   2.040458e-02   4.110806e-01   2.477672e-01  -2.794178e-01  -9.276514e-01  -5.031987e-01   7.811081e-01  -3.696773e-01   8.278904e-01   5.583869e-01   5.293032e-02
   4.988720e-03   1.500423e-02   1.376370e-02   1.550332e+03   7.093110e-01   3.167945e-01   3.061669e-01   3.770386e-01  -1.373914e-02  -9.328120e-03   6.730876e-02  -2.759172e+03  -2.096344e+03  -7.525435e+03  -1.356404e+03   6.291001e+02  -1.695769e+03  -3.769584e+06   7.129349e+07  -6.255643e+08  -2.693507e+08   2.021035e+08  -1.522375e+08  -3.768203e+06   3.204834e+07   3.634773e+08  -5.707497e+08   7.129251e+07   2.802637e+07   4.072552e+07  -3.325037e+08  -6.255675e+08  -3.766920e+06   3.204826e+07   3.634766e+08  -5.707484e+08   7.129349e+07   2.802676e+07   4.072559e+07  -3.325025e+08  -6.255640e+08   1.007915e+00   2.586294e-02  -9.198744e-03  -4.886884e-03   1.002825e+00   3.920726e-03   1.098158e-02  -2.754387e-03   9.882376e-01   9.998317e-01   1.531187e-02  -1.010415e-02  -1.527730e-02   9.998772e-01   3.489632e-03   1.015634e-02  -3.334681e-03   9.999429e-01   1.007931e+00   1.003107e+00   9.882877e-01   1.051015e-02   7.797810e-04   4.839383e-04   8.018401e-03   3.167340e-03  -1.164327e-02   1.056835e-02   7.808500e-04   4.859540e-04  -1.525088e-04   1.702732e-02   7.973179e-03   2.618054e-03  -1.190850e-02   1.026049e-02   9.493735e-04   5.191258e-04  -4.390898e-04   1.682373e-02   4.421535e-03   3.039095e-01  -4.226222e-01   7.291262e-02  -1.616739e-01  -1.486501e-01  -5.853100e-02   4.073109e-01  -3.078562e-01   4.421535e-03  -1.616739e-01  -3.078562e-01   1.884110e-01  -2.405766e-01   1.293304e-01   1.154984e-01  -1.820456e-01  -2.779805e-01   9.285188e+03   9.840374e+08   9.840388e+08   9.840352e+08   1.731787e+00   1.731787e+00   7.672321e-01   5.840700e-01   4.975011e-01  -4.126984e+03   8.422832e+03  -8.828653e+03  -4.434863e+03   8.825651e+02   2.257659e-01   4.299025e-01   8.741931e-01  -7.692732e-01  -4.718967e-01   4.307346e-01   5.977027e-01  -7.697385e-01   2.241743e-01  -8.169915e+08  -4.050186e+08   6.639697e+08   3.122444e-01   5.024283e-01   8.062687e-01  -6.996969e-01  -4.524472e-01   5.529158e-01   6.425946e-01  -7.367885e-01   2.102734e-01  -5.498084e-01  -9.043087e-02   1.751307e-01   4.814232e-01  -4.784087e-01   7.344092e-01  -1.006693e-01   8.021738e-01   5.885430e-01  -8.706879e-01  -3.572707e-01   3.380240e-01
   1.498119e-02   5.001793e-03   4.582777e-03   1.648310e+03   6.077070e-01   3.040772e-01   2.915425e-01   4.043803e-01   2.746255e-03  -9.701865e-03  -9.545627e-03  -1.962253e+03  -2.598162e+03  -5.478170e+03   9.778029e+01   2.363063e+02  -1.976350e+02   6.540585e+06  -9.122096e+06  -4.237367e+06  -2.804446e+06  -4.856975e+06   2.239998e+06   6.540640e+06   4.085881e+06  -8.320455e+06  -9.694534e+06  -9.121267e+06   1.295500e+06  -1.394218e+06   3.183325e+06  -4.236079e+06   6.540062e+06   4.085913e+06  -8.320397e+06  -9.694508e+06  -9.122032e+06   1.295445e+06  -1.394138e+06   3.183264e+06  -4.237693e+06   1.032233e+00   1.735560e-02   3.638322e-03   2.962107e-02   1.018395e+00   1.784295e-02   3.025347e-02  -1.845107e-02   9.822588e-01   9.998929e-01  -5.708501e-03  -1.347502e-02   5.953406e-03   9.998165e-01   1.820516e-02   1.336862e-02  -1.828343e-02   9.997435e-01   1.032703e+00   1.018447e+00   9.822826e-01   2.317000e-02   1.687561e-02  -1.401576e-04   3.364895e-02   1.888525e-02  -1.741800e-02   2.376139e-02   1.700043e-02   5.529517e-05   1.170540e-02   4.537609e-02   2.934065e-02   1.743531e-02  -1.815141e-02   2.190682e-02   1.680739e-02  -9.657034e-04   9.541516e-03   4.280090e-02   5.604296e-03   7.434443e-02  -9.953573e-02  -2.935210e-02   1.647259e-01  -8.387539e-02   9.839105e-02  -6.951213e-02   1.242489e-01   5.604296e-03   1.647259e-01   1.242489e-01   2.249616e-02  -5.723418e-04  -7.669376e-02   5.184827e-02  -9.896339e-02  -7.181632e-03   6.389325e+03   1.837420e+07   1.837351e+07   1.837401e+07   1.752208e+00   1.752208e+00   2.836329e-01   2.353306e-01   1.583261e-01  -3.346195e+03   3.302893e+03  -5.515284e+03  -2.589766e+03  -1.933536e+03   7.833887e-02  -7.378233e-02  -9.941927e-01   1.013157e-01  -9.915050e-01   8.156618e-02  -9.917652e-01  -1.071171e-01  -7.019807e-02  -1.428162e+07  -4.151187e+06   1.161393e+07  -3.986300e-01  -8.887284e-01   2.263980e-01   2.465597e-01   1.339189e-01   9.598302e-01   8.833473e-01  -4.384377e-01  -1.657405e-01   1.358212e-03   6.790403e-02   2.253169e-01   9.759213e-01  -1.870567e-01  -1.121933e-01   2.017836e-01   5.789089e-01   7.900303e-01   8.283072e-02   7.936462e-01  -6.027145e-01
   1.498119e-02   5.001793e-03   1.376370e-02   1.407836e+03   8.823210e-01   3.235046e-01   2.844896e-01   3.920058e-01   1.471830e-02   1.287720e-02   9.531311e-03  -3.680401e+03  -4.130089e+03  -1.043357e+04   7.318942e+02  -2.708134e+03  -3.183704e+02   9.928718e+07  -5.097894e+07  -1.100259e+09   1.239098e+08  -6.171538e+08  -5.941387e+07   9.928817e+07   2.077948e+07  -1.079913e+09   2.270418e+08  -5.097870e+07  -9.238932e+07  -1.543850e+08  -2.644253e+07  -1.100260e+09   9.928894e+07   2.077948e+07  -1.079912e+09   2.270415e+08  -5.097784e+07  -9.238921e+07  -1.543848e+08  -2.644251e+07  -1.100258e+09   1.004665e+00  -2.373065e-03  -2.124085e-02   2.229387e-02   1.016185e+00   1.657481e-02   4.243248e-02  -3.619185e-02   8.985801e-01   9.993597e-01  -1.174747e-02  -3.379722e-02   1.267733e-02   9.995433e-01   2.743151e-02   3.345953e-02  -2.784240e-02   9.990522e-01   1.005724e+00   1.016756e+00   8.989009e-01   9.299999e-03   9.048943e-03  -8.201860e-03   5.824494e-03   1.697356e-02  -9.591399e-02   9.367423e-03   8.579282e-03  -7.813899e-03  -2.437198e-02   7.386636e-02   4.323582e-03   1.571804e-02  -1.176192e-01   9.715552e-03   1.470115e-02  -1.279293e-02  -3.252585e-02   8.897407e-02  -1.173323e-01   3.650941e-02   3.527689e-01   2.293848e-01   7.806158e-02  -1.189657e-01   4.624686e-01  -2.571471e-01  -1.684676e-01  -1.173323e-01   7.806158e-02  -1.684676e-01   1.329471e-01   4.076188e-01  -1.880564e-01  -9.643769e-02  -5.484984e-02   6.909069e-02   1.287445e+04   1.572990e+09   1.572988e+09   1.572986e+09   1.689310e+00   1.689310e+00   7.216597e-01   6.975875e-01   1.848364e-01  -6.081352e+03   7.085426e+03  -1.048050e+04  -5.371746e+03  -2.391806e+03  -8.313545e-02   1.650609e-03  -9.965369e-01  -6.431661e-01   7.637546e-01   5.492076e-02   7.612003e-01   6.455046e-01  -6.243347e-02  -1.119817e+09  -2.098912e+08   2.777571e+08  -1.260485e-01   2.234883e-03  -9.920216e-01  -5.660795e-01   8.210426e-01   7.377702e-02   8.146568e-01   5.708626e-01  -1.022260e-01  -6.253975e-01   1.444608e-01   2.731983e-01  -6.430514e-01   3.088693e-01   7.007743e-01   3.836410e-01   9.218854e-01  -5.428456e-02  -6.628005e-01   2.339380e-01  -7.113147e-01
   1.498119e-02   1.500423e-02   4.582777e-03   1.500258e+03   7.663634e-01   3.725965e-01   3.207340e-01   3.066695e-01   2.197704e-02  -5.270674e-02  -2.539077e-02  -2.189655e+03  -2.661415e+03  -1.408352e+03  -7.863824e+02   4.260985e+02   3.321735e+02   3.800001e+06  -4.928816e+06  -1.297839e+06   6.382100e+06   6.913128e+06   7.002529e+06   3.799330e+06   2.326139e+06   9.436373e+06   1.043943e+07  -4.930128e+06   1.336035e+06   4.390833e+06   1.267055e+07  -1.298381e+06   3.800766e+06   2.326635e+06   9.436116e+06   1.043997e+07  -4.928382e+06   1.335785e+06   4.390531e+06   1.267037e+07  -1.297457e+06   9.884742e-01  -2.448688e-03  -3.874042e-03  -1.408520e-02   9.871831e-01   1.716544e-02   2.428120e-02   6.476581e-03   9.780162e-01   9.998793e-01   6.041572e-03  -1.431268e-02  -5.964058e-03   9.999674e-01   5.452239e-03   1.434515e-02  -5.366220e-03   9.998827e-01   9.887872e-01   9.871013e-01   9.780505e-01  -8.243102e-03   1.005384e-02   1.189323e-02  -1.106543e-02  -1.271079e-02  -2.158731e-02  -8.083939e-03   9.838119e-03   1.164456e-02  -1.512118e-02   2.096885e-02  -1.209396e-02  -1.324875e-02  -2.291486e-02  -8.875052e-03   1.101739e-02   1.243452e-02  -1.608586e-02   2.280574e-02  -3.011238e-01   4.417785e-01   5.485296e-02   4.843469e-02  -2.091285e-01   4.145198e-01   1.684795e-01  -1.840434e-02  -1.456746e-01  -3.011238e-01  -2.091285e-01  -1.456746e-01   2.451066e-01   1.116662e-01   1.980577e-01   1.966719e-01  -5.681327e-02   2.164621e-01   3.961151e+03   2.062552e+07   2.062697e+07   2.062678e+07   1.705659e+00   1.705659e+00   7.461267e-01   6.157746e-01   4.213393e-01  -2.086474e+03   2.019678e+03  -3.403896e+03  -1.668593e+03  -1.186933e+03  -6.035578e-01  -7.581767e-01   2.467511e-01  -6.364774e-01   6.445467e-01   4.236225e-01   4.802233e-01  -9.862919e-02   8.715835e-01  -1.736040e+07  -2.658836e+06   1.759258e+07  -2.760526e-01   7.898929e-01  -5.475985e-01  -7.413105e-01   1.876565e-01   6.443942e-01   6.117628e-01   5.838272e-01   5.337528e-01  -5.106927e-01  -3.048075e-01   1.595733e-01  -7.165265e-01   6.811547e-01  -1.503929e-01   5.010335e-01   3.525462e-01  -7.903649e-01   4.853403e-01   6.416693e-01   5.938900e-01
   1.498119e-02   1.500423e-02   1.376370e-02   1.362343e+03   9.451785e-01   3.114280e-01   3.295135e-01   3.590585e-01  -2.587216e-02  -2.451967e-02  -3.951667e-02  -3.298216e+02  -5.411677e+02  -6.555255e+02   9.477474e+01  -3.186117e+01  -1.941668e+02   2.253398e+06  -3.614470e+06  -6.713067e+03   3.260735e+05  -1.770017e+06  -5.033399e+06   2.253398e+06   3.725838e+05  -2.216861e+06   2.793643e+05  -3.614496e+06  -2.794785e+06  -1.323907e+06  -7.271763e+06  -6.895486e+03   2.253467e+06   3.725722e+05  -2.216862e+06   2.793361e+05  -3.614382e+06  -2.794756e+06  -1.323893e+06  -7.271709e+06  -6.758129e+03   1.020638e+00  -1.280920e-02  -2.925171e-02  -5.595740e-03   9.693049e-01  -1.790567e-03   4.531540e-03  -7.794776e-03   9.980031e-01   9.998533e-01  -3.658236e-03  -1.673372e-02   3.708365e-03   9.999887e-01   2.965611e-03   1.672268e-02  -3.027231e-03   9.998556e-01   1.020543e+00   9.693645e-01   9.983431e-01  -9.343130e-03  -1.256478e-02  -4.704723e-03   2.087685e-02  -3.011154e-02  -1.565479e-03  -9.266426e-03  -1.266145e-02  -4.570063e-03  -3.600057e-03   3.502615e-02   2.004480e-02  -3.238103e-02  -2.302953e-03  -9.351340e-03  -1.187776e-02  -5.236553e-03  -4.879728e-03   3.555366e-02   5.283401e-02   2.179095e-02  -4.794334e-01  -1.152681e-01  -1.568530e-01   3.136163e-01  -1.929898e-01  -8.183879e-02  -1.055187e-01   5.283401e-02  -1.568530e-01  -1.055187e-01  -4.673857e-02  -3.362116e-01   1.158888e-01   6.852952e-02  -1.432218e-01   1.977276e-01   9.693803e+02   9.258264e+06   9.258285e+06   9.258204e+06   1.725804e+00   1.725804e+00   6.514939e-01   5.439066e-01   3.586223e-01  -5.088383e+02   5.861532e+02  -8.605774e+02  -4.803962e+02  -1.855412e+02   6.251048e-02  -6.371083e-01  -7.682353e-01  -6.930951e-01   5.261461e-01  -4.927367e-01   7.181307e-01   5.632613e-01  -4.086870e-01  -9.333704e+06   1.895396e+06   6.070523e+06  -5.175359e-02  -7.840020e-01  -6.185972e-01  -9.509846e-01   2.277923e-01  -2.091389e-01  -3.048769e-01  -5.774527e-01   7.573628e-01  -3.894577e-01  -1.629941e-01   3.429140e-01  -5.632369e-01   2.750305e-01  -7.791806e-01  -3.378494e-01  -9.372083e-01  -8.659307e-02   7.540703e-01  -2.144733e-01  -6.207892e-01
