     VARIABLES=
              x              y              z      nomin_den    nomin_voidr      fabric_xx      fabric_yy      fabric_zz      fabric_xy      fabric_xz      fabric_yz       sigma_xx       sigma_yy       sigma_zz       sigma_xy       sigma_xz       sigma_yz    sigmaDot_xx    sigmaDot_yy    sigmaDot_zz    sigmaDot_xy    sigmaDot_xz    sigmaDot_yz       Oldro_xx       Oldro_xy       Oldro_xz       Oldro_yx       Oldro_yy       Oldro_yz       Oldro_zx       Oldro_zy       Oldro_zz       Trues_xx       Trues_xy       Trues_xz       Trues_yx       Trues_yy       Trues_yz       Trues_zx       Trues_zy       Trues_zz           F_xX           F_xY           F_xZ           F_yX           F_yY           F_yZ           F_zX           F_zY           F_zZ           R_xX           R_xY           R_xZ           R_yX           R_yY           R_yZ           R_zX           R_zY           R_zZ           U_xX           U_yY           U_zZ           U_xY           U_xZ           U_yZ       Green_xx       Green_yy       Green_zz       Green_xy       Green_xz       Green_yz      Green_vol      Green_shr       Euler_xx       Euler_yy       Euler_zz       Euler_xy       Euler_xz       Euler_yz      Euler_vol      Euler_shr           l_xx           l_xy           l_xz           l_yx           l_yy           l_yz           l_zx           l_zy           l_zz           d_xx           d_yy           d_zz           d_xy           d_xz           d_yz           w_xy           w_xz           w_yz     norm_sigma  norm_sigmaDot     norm_Oldro     norm_Trues         norm_F         norm_U         norm_l         norm_d         norm_w              p              q        sigma_1        sigma_2        sigma_3     sigma_1_v1     sigma_1_v2     sigma_1_v3     sigma_2_v1     sigma_2_v2     sigma_2_v3     sigma_3_v1     sigma_3_v2     sigma_3_v3     sigmaDot_1     sigmaDot_2     sigmaDot_3  sigmaDot_1_v1  sigmaDot_1_v2  sigmaDot_1_v3  sigmaDot_2_v1  sigmaDot_2_v2  sigmaDot_2_v3  sigmaDot_3_v1  sigmaDot_3_v2  sigmaDot_3_v3            d_1            d_2            d_3         d_1_v1         d_1_v2         d_1_v3         d_2_v1         d_2_v2         d_2_v3         d_3_v1         d_3_v2         d_3_v3
ZONE I=2, J=2, K=2, DATAPACKING=POINT, STRANDID=5, SOLUTIONTIME=1
   5.001248e-03   5.001248e-03   4.914342e-03   1.591096e+03   6.655185e-01   4.164152e-01   2.893500e-01   2.942349e-01   1.819036e-02   6.172588e-02   4.523110e-02  -5.573054e+01  -3.169052e+01  -5.260795e+01  -9.968807e+00  -3.682796e+01  -1.758788e+01  -3.806422e+03  -3.361251e+05   8.818258e+04   1.278773e+05  -1.138454e+05   2.163961e+05  -3.813019e+03   2.051840e+04  -4.405009e+05   2.352351e+05  -3.361278e+05  -7.533814e+04   2.128038e+05   5.081271e+05   8.817915e+04  -3.805604e+03   2.051821e+04  -4.404970e+05   2.352380e+05  -3.361236e+05  -7.533638e+04   2.128098e+05   5.081300e+05   8.818614e+04   9.997547e-01   6.702819e-05  -6.015694e-05   1.297219e-05   9.997597e-01   2.707660e-05   4.564439e-05  -6.112484e-05   9.997999e-01   1.000000e+00   2.703512e-05  -5.291250e-05  -2.703279e-05   1.000000e+00   4.411211e-05   5.291370e-05  -4.411068e-05   1.000000e+00   9.997547e-01   9.997597e-01   9.997999e-01   3.999866e-05  -7.254561e-06  -1.702688e-05  -2.452753e-04  -2.403021e-04  -2.000910e-04   3.998901e-05  -7.253286e-06  -1.702327e-05  -2.285561e-04   5.837127e-05  -2.453960e-04  -2.404251e-04  -2.001711e-04   4.002835e-05  -7.263007e-06  -1.703361e-05  -2.286640e-04   5.842635e-05  -5.669894e-02   1.217950e-02  -7.052382e-03  -2.263527e-04  -4.486139e-02   6.006426e-03   8.406564e-03  -2.120685e-02  -3.147756e-02  -5.669894e-02  -4.486139e-02  -3.147756e-02   5.976573e-03   6.770907e-04  -7.600210e-03   6.202926e-03  -7.729473e-03   1.360664e-02   1.040547e+02   8.244545e+05   8.244538e+05   8.244547e+05   1.731655e+00   1.731655e+00   8.350303e-02   8.003770e-02   2.380595e-02  -4.667634e+01   9.649106e+01  -1.107170e+02  -1.990990e+01  -9.402109e+00  -6.682875e-01  -3.613127e-01  -6.502654e-01   3.206509e-01  -9.286627e-01   1.864633e-01  -6.712488e-01  -8.389705e-02   7.364689e-01  -6.847682e+05  -1.548042e+05   5.878234e+05  -1.293764e-01   8.445651e-01  -5.195878e-01  -8.763491e-01   1.477944e-01   4.584420e-01   4.639763e-01   5.146519e-01   7.210128e-01  -5.968448e-02  -4.543554e-02  -2.791786e-02   8.922486e-01  -4.301572e-01  -1.373215e-01   4.464404e-01   7.947836e-01   4.111082e-01   6.770027e-02   4.281166e-01  -9.011841e-01
   5.001248e-03   5.001248e-03   1.473804e-02   1.258269e+03   1.106068e+00   6.639210e-01   7.863357e-02   2.574455e-01   5.559202e-02  -1.889017e-01   4.915949e-02  -4.381490e+00   3.846370e-01  -5.330854e+00  -1.457848e+00   3.784481e+00  -5.300741e-01   2.889750e+04   1.236167e+05   2.363325e+05  -3.500507e+05  -3.137024e+04  -2.021695e+04   2.889682e+04  -2.867615e+04  -1.344758e+04  -6.714258e+05   1.236164e+05  -7.994165e+02  -4.929283e+04  -3.963512e+04   2.363325e+05   2.889779e+04  -2.867627e+04  -1.344850e+04  -6.714250e+05   1.236163e+05  -7.995134e+02  -4.929360e+04  -3.963479e+04   2.363337e+05   9.994416e-01  -1.889677e-04  -2.792751e-04  -3.193620e-04   9.996425e-01  -4.319116e-04  -1.066472e-04  -2.387523e-05   9.999537e-01   1.000000e+00   6.522806e-05  -8.636523e-05  -6.524568e-05   1.000000e+00  -2.040738e-04   8.635192e-05   2.040795e-04   1.000000e+00   9.994416e-01   9.996424e-01   9.999538e-01  -2.541921e-04  -1.928990e-04  -2.278598e-04  -5.582135e-04  -3.574298e-04  -4.620299e-05  -2.540538e-04  -1.928117e-04  -2.277892e-04  -3.206154e-04   5.418029e-04  -5.590413e-04  -3.577926e-04  -4.651214e-05  -2.545356e-04  -1.932723e-04  -2.281445e-04  -3.211154e-04   5.426759e-04  -1.227091e-01  -4.243604e-02  -6.795352e-02  -7.619404e-02  -7.868592e-02  -9.632081e-02  -2.679854e-02  -4.190467e-03  -2.128388e-02  -1.227091e-01  -7.868592e-02  -2.128388e-02  -5.931504e-02  -4.737603e-02  -5.025564e-02   1.687900e-02  -2.057749e-02  -4.606517e-02   9.545382e+00   7.264884e+05   7.264890e+05   7.264887e+05   1.731495e+00   1.731495e+00   2.096174e-01   1.956497e-01   7.523741e-02  -3.109236e+00   1.029801e+01  -8.523035e+00  -4.058533e+00   3.253861e+00  -7.058944e-01  -1.561826e-01   6.908835e-01   4.915842e-01   5.942157e-01   6.365946e-01   5.099588e-01  -7.889960e-01   3.426767e-01  -6.015855e+05   2.410401e+05   7.493921e+05   7.296706e-01   6.796652e-01   7.507396e-02   4.875312e-02   5.780097e-02  -9.971370e-01  -6.820587e-01   7.312416e-01   9.039867e-03  -1.910796e-01  -4.098009e-02   9.380796e-03   7.418301e-01   5.578778e-01   3.721028e-01   6.575428e-01  -7.140573e-01  -2.403324e-01  -1.316266e-01  -4.229593e-01   8.965377e-01
   5.001248e-03   1.499875e-02   4.914342e-03   1.485730e+03   7.836346e-01   4.134687e-01   3.231914e-01   2.633400e-01  -1.524137e-02  -1.287971e-02   8.529905e-02  -2.287815e+01  -1.740468e+01  -1.408839e+01   4.928828e-01   5.432717e+00  -5.752994e+00  -5.424478e+04   2.174454e+05   2.442140e+05  -2.001937e+05  -1.489524e+05   1.131052e+05  -5.424609e+04  -3.550473e+04   4.848817e+05  -3.648821e+05   2.174426e+05   5.395318e+04  -7.827865e+05   1.722559e+05   2.442133e+05  -5.424281e+04  -3.550495e+04   4.848805e+05  -3.648820e+05   2.174451e+05   5.395408e+04  -7.827869e+05   1.722566e+05   2.442153e+05   9.998617e-01   1.276144e-04   2.759104e-05  -2.138271e-05   9.996066e-01   2.265753e-05  -9.407843e-05  -1.589382e-05   9.998573e-01   1.000000e+00   7.451738e-05   6.084336e-05  -7.451855e-05   1.000000e+00   1.927572e-05  -6.084193e-05  -1.928025e-05   1.000000e+00   9.998617e-01   9.996066e-01   9.998573e-01   5.312617e-05  -3.324389e-05   3.382082e-06  -1.382520e-04  -3.933253e-04  -1.426856e-04   5.311199e-05  -3.323913e-05   3.380292e-06  -2.247543e-04   1.835000e-04  -1.382943e-04  -3.936484e-04  -1.427247e-04   5.314927e-05  -3.325921e-05   3.391536e-06  -2.248891e-04   1.836925e-04  -2.646501e-02   2.777175e-02   6.520292e-03  -1.189721e-02  -8.594488e-02   8.020707e-03  -2.394516e-02  -8.771829e-03  -3.091948e-02  -2.646501e-02  -8.594488e-02  -3.091948e-02   7.937268e-03  -8.712434e-03  -3.755607e-04   1.983448e-02   1.523273e-02   8.396268e-03   3.420019e+01   1.060525e+06   1.060524e+06   1.060525e+06   1.731661e+00   1.731661e+00   1.035032e-01   9.654548e-02   3.730791e-02  -1.812374e+01   1.272416e+01  -2.376153e+01  -2.079389e+01  -9.815800e+00  -9.076249e-01   2.181475e-01   3.586485e-01   3.786624e-01   7.942433e-01   4.751761e-01   1.811957e-01  -5.670884e-01   8.034793e-01  -7.355972e+05   8.846561e+04   1.054546e+06   7.828729e-01   1.928118e-01   5.915519e-01   1.097195e-01   8.930868e-01  -4.363000e-01   6.124309e-01  -4.064722e-01  -6.780182e-01  -8.699639e-02  -3.727567e-02  -1.905731e-02   1.319626e-01  -9.911577e-01   1.386445e-02  -5.845223e-01  -8.910423e-02  -8.064701e-01   8.005745e-01   9.831981e-02  -5.911123e-01
   5.001248e-03   1.499875e-02   1.473804e-02   1.245158e+03   1.128243e+00   2.833455e-01   3.507516e-01   3.659029e-01   7.767526e-02   3.084794e-02   2.726248e-02  -6.724872e+00  -5.805537e+00  -6.335558e+00  -3.268714e+00  -3.079088e+00  -2.398816e+00   3.304260e+03   2.693658e+03  -1.703802e+04   2.489466e+03   1.266362e+03   1.338194e+04   3.303680e+03   8.811158e+03  -3.334433e+03  -3.832427e+03   2.693563e+03   1.254247e+04   5.866880e+03   1.422149e+04  -1.703809e+04   3.304136e+03   8.811484e+03  -3.334215e+03  -3.832310e+03   2.693956e+03   1.254247e+04   5.867079e+03   1.422181e+04  -1.703766e+04   9.997413e-01  -3.269686e-06   6.781314e-05   2.337276e-05   9.999333e-01   1.503158e-05  -8.276703e-05   7.418397e-05   9.999780e-01   1.000000e+00  -1.332384e-05   7.530129e-05   1.332607e-05   1.000000e+00  -2.957733e-05  -7.530090e-05   2.957833e-05   1.000000e+00   9.997413e-01   9.999333e-01   9.999780e-01   1.004991e-05  -7.485905e-06   4.460836e-05  -2.586530e-04  -6.669039e-05  -2.195359e-05   1.004811e-05  -7.484630e-06   4.460635e-05  -1.157656e-04   1.547456e-04  -2.587885e-04  -6.670584e-05  -2.195488e-05   1.005634e-05  -7.472193e-06   4.461223e-05  -1.158164e-04   1.548274e-04  -5.100482e-02   1.267525e-03   1.580231e-02   9.423131e-03  -1.389132e-02   9.550497e-04  -2.021133e-02   1.839860e-02  -2.902899e-03  -5.100482e-02  -1.389132e-02  -2.902899e-03   5.345328e-03  -2.204510e-03   9.676823e-03  -4.077803e-03   1.800682e-02  -8.721773e-03   1.365171e+01   2.838832e+04   2.838826e+04   2.838835e+04   1.731850e+00   1.731850e+00   6.237724e-02   5.529045e-02   2.887710e-02  -6.288656e+00   1.009389e+01  -1.265745e+01  -4.986016e+00  -1.222500e+00   4.908892e-01   5.742183e-01   6.552108e-01   8.543227e-01  -4.646750e-01  -2.328302e-01  -1.707648e-01  -6.740553e-01   7.186716e-01  -2.613418e+04   4.875024e+03   1.021905e+04   2.306499e-01   4.549790e-01  -8.601132e-01   9.654198e-01   3.382394e-03   2.606783e-01  -1.215124e-01   8.904957e-01   4.384656e-01  -5.202579e-02  -1.851567e-02   2.742423e-03   9.847209e-01  -1.570956e-01   7.513836e-02   1.734930e-01   8.478706e-01  -5.010145e-01  -1.499957e-02  -5.063955e-01  -8.621709e-01
   1.499875e-02   5.001248e-03   4.914342e-03   1.618451e+03   6.373681e-01   3.874770e-01   2.573574e-01   3.551656e-01   6.971774e-02   1.327694e-01   3.906818e-02  -7.657159e+01  -1.096760e+01  -4.817862e+01  -2.957673e+01  -3.056312e+01  -8.044189e+00  -1.118545e+05   6.701648e+04  -1.436626e+05   1.665529e+05  -1.881187e+05   7.005639e+04  -1.118595e+05   9.158305e+03  -1.087293e+05   3.239403e+05   6.701437e+04   1.261351e+05  -2.675118e+05   1.397756e+04  -1.436671e+05  -1.118478e+05   9.160570e+03  -1.087283e+05   3.239471e+05   6.701605e+04   1.261375e+05  -2.675035e+05   1.397766e+04  -1.436597e+05   9.997896e-01   1.151396e-04  -2.959324e-08  -7.081336e-05   9.997504e-01   8.369650e-05   1.164555e-04  -1.054219e-04   9.997480e-01   1.000000e+00   9.300308e-05  -5.825218e-05  -9.299757e-05   1.000000e+00   9.458896e-05   5.826098e-05  -9.458354e-05   1.000000e+00   9.997897e-01   9.997504e-01   9.997480e-01   2.215914e-05   5.820892e-05  -1.086321e-05  -2.103196e-04  -2.495310e-04  -2.519851e-04   2.215373e-05   5.819534e-05  -1.085984e-05  -2.372786e-04   7.782046e-05  -2.104185e-04  -2.496630e-04  -2.521103e-04   2.217788e-05   5.824899e-05  -1.087768e-05  -2.373973e-04   7.789322e-05  -4.347729e-02   3.022598e-02  -2.561192e-03  -2.222188e-02  -5.309841e-02   2.302668e-02   1.961940e-02  -1.535695e-02  -5.622193e-02  -4.347729e-02  -5.309841e-02  -5.622193e-02   4.002050e-03   8.529103e-03   3.834866e-03   2.622393e-02  -1.109029e-02   1.919182e-02   1.171553e+02   4.920909e+05   4.920925e+05   4.920883e+05   1.731640e+00   1.731640e+00   1.021547e-01   8.987524e-02   4.855955e-02  -4.523927e+01   1.341396e+02  -1.296509e+02  -2.860335e+01   2.253646e+01  -7.929372e-01  -2.989521e-01  -5.309221e-01  -2.586156e-01  -6.238448e-01   7.375199e-01  -5.516961e-01   7.221117e-01   4.173561e-01  -5.052318e+05  -4.853344e+04   3.652645e+05  -7.210819e-01   4.216273e-01  -5.497921e-01   2.433092e-01  -5.888873e-01  -7.707220e-01  -6.487230e-01  -6.895231e-01   3.220502e-01  -6.090674e-02  -5.448825e-02  -3.740265e-02   3.807844e-01   2.429978e-01  -8.921633e-01  -3.950628e-01   9.151088e-01   8.063059e-02   8.360195e-01   3.217576e-01   4.444586e-01
   1.499875e-02   5.001248e-03   1.473804e-02   1.401403e+03   8.909622e-01   2.086855e-01   5.436673e-01   2.476472e-01  -2.317345e-02   4.805369e-02  -5.732911e-02  -7.803958e+01  -9.987823e+01  -3.057797e+03   8.502661e+00  -3.079569e+02   1.418051e+02  -4.115256e+07   2.726680e+06   1.337193e+08  -4.562403e+07   1.391863e+08   1.464373e+08  -4.115256e+07   1.752404e+07   2.716728e+08  -1.087721e+08   2.726696e+06   1.505388e+07   6.699707e+06   2.778202e+08   1.337187e+08  -4.115254e+07   1.752404e+07   2.716728e+08  -1.087722e+08   2.726717e+06   1.505387e+07   6.699806e+06   2.778202e+08   1.337193e+08   9.996891e-01   4.750220e-06   7.134013e-05   2.058233e-04   9.997449e-01  -4.484083e-04  -7.938878e-05  -6.129089e-05   1.000133e+00   1.000000e+00  -1.005477e-04   7.537826e-05   1.005623e-04   1.000000e+00  -1.935705e-04  -7.535880e-05   1.935781e-04   1.000000e+00   9.996891e-01   9.997449e-01   1.000133e+00   1.052915e-04  -4.073789e-06  -2.548117e-04  -3.108371e-04  -2.550303e-04   1.331849e-04   1.052622e-04  -4.086842e-06  -2.547963e-04  -1.442275e-04   4.235010e-04  -3.110745e-04  -2.551927e-04   1.329215e-04   1.053553e-04  -3.955115e-06  -2.549412e-04  -1.444486e-04   4.236220e-04  -7.343931e-02  -8.025395e-03   1.596501e-02   4.941469e-02  -3.843482e-02  -8.681822e-02  -2.215709e-02  -1.002871e-02  -9.932739e-02  -7.343931e-02  -3.843482e-02  -9.932739e-02   2.069465e-02  -3.096038e-03  -4.842347e-02  -2.872004e-02   1.906105e-02  -3.839476e-02   3.109621e+03   4.277641e+08   4.277638e+08   4.277640e+08   1.731801e+00   1.731801e+00   1.662123e-01   1.493381e-01   7.297015e-02  -1.078572e+03   3.107279e+03  -3.149621e+03  -8.126220e+01  -4.831496e+00  -1.525713e-01   7.794935e-02  -9.852136e-01   6.918859e-03  -9.967760e-01  -7.993562e-02  -9.882682e-01  -1.901244e-02   1.515401e-01  -2.556488e+08  -1.263290e+07   3.635751e+08   3.944959e-01   7.447870e-01  -5.382056e-01   9.053464e-01  -2.148143e-01   3.663369e-01  -1.572287e-01   6.317809e-01   7.590336e-01  -1.271382e-01  -7.811785e-02  -5.945463e-03   1.433502e-01  -4.997638e-01  -8.542171e-01  -9.490358e-01   1.753763e-01  -2.618669e-01   2.806810e-01   8.482213e-01  -4.491535e-01
   1.499875e-02   1.499875e-02   4.914342e-03   1.427857e+03   8.559282e-01   6.267086e-01   3.234980e-01   4.979346e-02  -2.981629e-02  -9.537564e-02   1.111329e-01  -4.800388e+00  -2.067108e+00  -4.549209e-02  -2.122202e+00   2.280075e+00   9.651718e-01   2.257605e+04   1.176193e+04   5.073304e+02  -8.944453e+03  -8.279962e+03  -1.643041e+03   2.257542e+04  -1.066048e+04  -1.151421e+04  -7.228936e+03   1.176176e+04   2.725139e+03  -5.044948e+03  -6.010901e+03   5.072299e+02   2.257616e+04  -1.066037e+04  -1.151472e+04  -7.228389e+03   1.176208e+04   2.725117e+03  -5.045143e+03  -6.011177e+03   5.072369e+02   9.996868e-01  -2.222744e-05  -3.045996e-05  -2.063575e-05   9.998739e-01   4.608624e-06   1.018709e-04   2.698211e-05   9.997258e-01   1.000000e+00  -7.960679e-07  -6.618500e-05   7.953273e-07   1.000000e+00  -1.118973e-05   6.618500e-05   1.118968e-05   1.000000e+00   9.996868e-01   9.998739e-01   9.997258e-01  -2.143043e-05   3.570690e-05   1.579526e-05  -3.131365e-04  -1.260490e-04  -2.741473e-04  -2.142544e-05   3.569625e-05   1.579172e-05  -2.377776e-04   1.250341e-04  -3.133409e-04  -1.260826e-04  -2.742956e-04  -2.144699e-05   3.573605e-05   1.580616e-05  -2.379064e-04   1.251475e-04  -7.134226e-02   3.746124e-03  -7.797067e-03  -1.371082e-02  -2.844569e-02  -2.971260e-03   1.932123e-02   3.870155e-03  -5.417866e-02  -7.134226e-02  -2.844569e-02  -5.417866e-02  -4.982350e-03   5.762084e-03   4.494476e-04   8.728474e-03  -1.355915e-02  -3.420708e-03   7.489092e+00   3.187123e+04   3.187060e+04   3.187134e+04   1.731639e+00   1.731639e+00   9.743784e-02   9.460791e-02   2.331258e-02  -2.304329e+00   8.334566e+00  -7.795788e+00  -2.920240e-01   1.174824e+00   7.822473e-01   5.664322e-01  -2.593137e-01   5.756042e-01  -4.979780e-01   6.486122e-01  -2.382623e-01   6.566372e-01   7.155827e-01  -4.289227e+03   1.279221e+04   2.634233e+04  -2.794390e-01  -4.445572e-01  -8.510480e-01  -3.184790e-01  -7.932640e-01   5.189445e-01   9.058062e-01  -4.160543e-01  -8.008675e-02  -7.362859e-02  -5.246514e-02  -2.787289e-02   9.525335e-01   1.078684e-01  -2.846828e-01   2.819012e-01   4.053783e-02   9.585867e-01  -1.149416e-01   9.933384e-01  -8.205413e-03
   1.499875e-02   1.499875e-02   1.473804e-02   1.231136e+03   1.152483e+00   4.905000e-01   5.665679e-05   5.094433e-01  -5.271637e-03   4.998819e-01  -5.372469e-03  -7.108791e-02   4.962905e-02   6.794930e-02  -1.115669e-01  -1.081005e-01   1.834447e-02   1.210319e+03   4.220771e+02   5.095649e+01   2.535307e+03  -1.883262e+03  -6.815664e+02   1.210318e+03  -5.078187e+02  -3.812840e+03   5.578497e+03   4.220757e+02  -5.198021e+02   4.572591e+01  -8.432439e+02   5.131480e+01   1.210500e+03  -5.077606e+02  -3.812403e+03   5.579010e+03   4.219487e+02  -5.199485e+02   4.584155e+01  -8.431913e+02   5.114093e+01   9.999825e-01  -1.198911e-04  -1.984309e-04   3.170644e-04   1.000572e+00   6.850093e-04   7.967346e-05   2.346410e-04   9.907891e-01   1.000000e+00  -2.183760e-04  -1.396822e-04   2.184076e-04   1.000000e+00   2.261593e-04   1.396328e-04  -2.261898e-04   1.000000e+00   9.999826e-01   1.000572e+00   9.907893e-01   9.867413e-05  -5.993459e-05   4.609463e-04  -1.743781e-05   5.717910e-04  -9.168223e-03   9.868766e-05  -5.963530e-05   4.589522e-04  -2.871290e-03   6.329745e-03  -1.749135e-05   5.709441e-04  -9.340147e-03   9.842699e-05  -5.966564e-05   4.647623e-04  -2.928898e-03   6.444005e-03   1.972507e-02   1.293533e-02  -2.849862e-02   5.971871e-02   9.437783e-02   1.448152e-01  -3.389370e-02  -6.538300e-02  -2.672849e+00   1.972507e-02   9.437783e-02  -2.672849e+00   3.632702e-02  -3.119616e-02   3.971613e-02  -2.339169e-02   2.697540e-03   1.050991e-01   2.963084e-01   6.967098e+03   6.967371e+03   6.967566e+03   1.727070e+00   1.727070e+00   2.680365e+00   2.676034e+00   1.523173e-01   1.549681e-02   3.808142e-01  -2.280045e-01   7.503697e-02   1.994580e-01   7.943862e-01   5.854346e-01   1.619164e-01   7.998269e-02   1.634281e-01  -9.833077e-01  -6.021241e-01   7.940765e-01   8.300041e-02  -4.862128e+03   9.089276e+01   6.454587e+03  -6.711849e-01   7.295388e-01   1.314688e-01  -1.515781e-01   3.853664e-02  -9.876938e-01   7.256273e-01   6.828529e-01  -8.471687e-02  -2.673792e+00   5.682120e-03   1.093642e-01  -1.177547e-02   1.449946e-02  -9.998255e-01  -9.278122e-01   3.726900e-01   1.633208e-02  -3.728618e-01  -9.278426e-01  -9.064172e-03
