VARIABLES=
 x y z nomin_den nomin_voidr fabric_xx fabric_yy fabric_zz fabric_xy fabric_xz fabric_yz sigma_xx sigma_yy sigma_zz sigma_xy sigma_xz sigma_yz sigmaDot_xx sigmaDot_yy sigmaDot_zz sigmaDot_xy sigmaDot_xz sigmaDot_yz Oldro_xx Oldro_xy Oldro_xz Oldro_yx Oldro_yy Oldro_yz Oldro_zx Oldro_zy Oldro_zz Trues_xx Trues_xy Trues_xz Trues_yx Trues_yy Trues_yz Trues_zx Trues_zy Trues_zz F_xX F_xY F_xZ F_yX F_yY F_yZ F_zX F_zY F_zZ R_xX R_xY R_xZ R_yX R_yY R_yZ R_zX R_zY R_zZ U_xX U_yY U_zZ U_xY U_xZ U_yZ Green_xx Green_yy Green_zz Green_xy Green_xz Green_yz Green_vol Green_shr Euler_xx Euler_yy Euler_zz Euler_xy Euler_xz Euler_yz Euler_vol Euler_shr l_xx l_xy l_xz l_yx l_yy l_yz l_zx l_zy l_zz d_xx d_yy d_zz d_xy d_xz d_yz w_xy w_xz w_yz norm_sigma norm_sigmaDot norm_Oldro norm_Trues norm_F norm_U norm_l norm_d norm_w p q sigma_1 sigma_2 sigma_3 sigma_1_v1 sigma_1_v2 sigma_1_v3 sigma_2_v1 sigma_2_v2 sigma_2_v3 sigma_3_v1 sigma_3_v2 sigma_3_v3 sigmaDot_1 sigmaDot_2 sigmaDot_3 sigmaDot_1_v1 sigmaDot_1_v2 sigmaDot_1_v3 sigmaDot_2_v1 sigmaDot_2_v2 sigmaDot_2_v3 sigmaDot_3_v1 sigmaDot_3_v2 sigmaDot_3_v3 d_1 d_2 d_3 d_1_v1 d_1_v2 d_1_v3 d_2_v1 d_2_v2 d_2_v3 d_3_v1 d_3_v2 d_3_v3
ZONE T="stress" N=27, E=8, DATAPACKING=BLOCK, VARLOCATION=([4,5,6,7,8,9,10,11,12,13,14,15,16,17,18,19,20,21,22,23,24,25,26,27,28,29,30,31,32,33,34,35,36,37,38,39,40,41,42,43,44,45,46,47,48,49,50,51,52,53,54,55,56,57,58,59,60,61,62,63,64,65,66,67,68,69,70,71,72,73,74,75,76,77,78,79,80,81,82,83,84,85,86,87,88,89,90,91,92,93,94,95,96,97,98,99,100,101,102,103,104,105,106,107,108,109,110,111,112,113,114,115,116,117,118,119,120,121,122,123,124,125,126,127,128,129,130,131,132,133,134,135,136,137,138,139,140,141,142,143,144,145,146]=CELLCENTERED), ZONETYPE=FEBRICK, STRANDID=4, SOLUTIONTIME=2
   4.975147e-06   4.975147e-06   4.975147e-06   4.975147e-06   4.975147e-06   4.975147e-06   4.975147e-06   4.975147e-06   4.975147e-06   1.000008e-02   1.000008e-02   1.000008e-02   1.000008e-02   1.000008e-02   1.000008e-02   1.000008e-02   1.000008e-02   1.000008e-02   1.999518e-02   1.999518e-02   1.999518e-02   1.999518e-02   1.999518e-02   1.999518e-02   1.999518e-02   1.999518e-02   1.999518e-02
   4.715415e-06   4.715415e-06   4.715415e-06   9.999899e-03   9.999899e-03   9.999899e-03   1.999508e-02   1.999508e-02   1.999508e-02   4.715415e-06   4.715415e-06   4.715415e-06   9.999899e-03   9.999899e-03   9.999899e-03   1.999508e-02   1.999508e-02   1.999508e-02   4.715415e-06   4.715415e-06   4.715415e-06   9.999899e-03   9.999899e-03   9.999899e-03   1.999508e-02   1.999508e-02   1.999508e-02
   4.975147e-06   9.707998e-03   1.941102e-02   4.975147e-06   9.707998e-03   1.941102e-02   4.975147e-06   9.707998e-03   1.941102e-02   4.975147e-06   9.707998e-03   1.941102e-02   4.975147e-06   9.707998e-03   1.941102e-02   4.975147e-06   9.707998e-03   1.941102e-02   4.975147e-06   9.707998e-03   1.941102e-02   4.975147e-06   9.707998e-03   1.941102e-02   4.975147e-06   9.707998e-03   1.941102e-02
   1.606147e+03   1.280015e+03   1.455448e+03   1.310708e+03   1.639352e+03   1.419501e+03   1.446297e+03   1.247036e+03
   6.499108e-01   1.070288e+00   8.207447e-01   1.021808e+00   6.164923e-01   8.668532e-01   8.322658e-01   1.125039e+00
   5.231263e-01   4.301177e-01   3.186292e-01   3.870122e-01   3.071207e-01   3.181550e-01   3.056418e-01   2.624925e-01
   2.546204e-01   4.149153e-01   3.661863e-01   5.019518e-01   3.950951e-01   3.542793e-01   4.967486e-01   4.414667e-01
   2.222533e-01   1.549670e-01   3.151845e-01   1.110360e-01   2.977842e-01   3.275658e-01   1.976096e-01   2.960408e-01
   6.878533e-02  -1.494908e-01  -8.986178e-02   1.667381e-01  -5.761435e-02  -7.558257e-02  -1.117995e-01   4.639029e-02
  -4.827081e-02   1.771170e-02  -2.530758e-02  -1.665237e-01   3.397488e-02   5.181896e-02  -8.218568e-02  -7.897870e-02
  -3.301100e-02  -1.537412e-01   4.220754e-02  -9.176730e-02  -2.496973e-02  -1.463956e-01  -5.069185e-02   1.085119e-01
  -2.824867e+02  -5.960658e+02  -1.238496e+02  -1.933022e+01  -3.380455e+02  -5.916116e+02  -3.357028e+02  -7.109794e+01
  -1.127381e+02  -6.296613e+02  -5.351922e+02  -5.324726e+01  -1.925064e+03  -3.687881e+02  -1.677433e+03  -4.943711e+02
  -5.052250e+01  -8.337438e+02  -5.582970e+01  -1.087191e+01  -1.024889e+03  -2.265540e+03  -2.568880e+02  -8.470031e+02
  -1.353866e+02   1.562489e+02   1.728633e+02  -4.144117e+00   9.565459e+00   1.322325e+02   5.288447e+02  -1.641822e+02
  -9.218392e+01   9.480954e+01   1.733891e+01   1.561268e+01  -1.869013e+02  -3.983401e+02  -4.469964e+01   1.111801e+02
   8.740757e+00   6.346860e+02  -1.378613e+02   2.751623e+01  -2.848373e+02   7.171132e+02  -1.826908e+02  -1.069307e+02
  -5.568965e+06  -1.772662e+06  -2.686330e+06   5.094558e+05  -2.397061e+06  -5.307614e+06  -3.590545e+06   1.412824e+06
  -7.558592e+06   1.577955e+06  -1.039148e+07  -5.543266e+05  -2.067221e+07  -1.669702e+07  -5.645494e+06   7.002158e+06
   5.985463e+05   5.676596e+06  -1.131260e+06   1.115644e+05  -3.708194e+07  -2.287025e+08  -1.861016e+05  -8.023093e+06
  -7.417773e+06   1.007429e+06   3.934187e+06   2.084679e+05  -1.788192e+07   8.094316e+06   6.020008e+06  -3.792756e+06
   2.573834e+05   5.526860e+06   2.821071e+06  -2.819171e+05   1.152143e+06  -3.052190e+07  -2.516485e+06   2.923337e+06
  -4.625923e+05  -1.451269e+06  -3.450464e+06  -2.956007e+04  -2.473341e+07   6.177605e+07  -4.797188e+06  -2.614482e+06
  -5.569171e+06  -1.773596e+06  -2.686346e+06   5.094447e+05  -2.396963e+06  -5.306980e+06  -3.590336e+06   1.412880e+06
  -5.686763e+06   1.443200e+06   6.620619e+06   2.115526e+05  -2.835537e+07   8.198411e+06  -2.048719e+05   4.350506e+05
  -2.240621e+05   6.838973e+06   4.645139e+06  -3.329167e+05   4.866078e+06  -2.034446e+07  -2.812907e+06   1.185710e+06
  -9.148857e+06   5.714435e+05   1.247829e+06   2.053994e+05  -7.408333e+06   7.989395e+06   1.224463e+07  -8.020424e+06
  -7.558621e+06   1.579027e+06  -1.039158e+07  -5.543245e+05  -2.067144e+07  -1.669644e+07  -5.646887e+06   7.001642e+06
   1.307718e+06  -1.790606e+06  -3.305081e+06  -2.172903e+04  -2.417541e+07   5.886152e+07  -6.138030e+06  -2.643326e+06
   7.386234e+05   4.214315e+06   9.970038e+05  -2.309181e+05  -2.561958e+06  -4.069494e+07  -2.220548e+06   4.661155e+06
  -2.232927e+06  -1.114827e+06  -3.595864e+06  -3.739011e+04  -2.529230e+07   6.468741e+07  -3.455184e+06  -2.586569e+06
   5.984997e+05   5.679070e+06  -1.131261e+06   1.115631e+05  -3.708407e+07  -2.286979e+08  -1.860160e+05  -8.024101e+06
  -5.568999e+06  -1.773909e+06  -2.686325e+06   5.094499e+05  -2.396726e+06  -5.307684e+06  -3.590124e+06   1.412940e+06
  -5.686683e+06   1.443249e+06   6.620584e+06   2.115541e+05  -2.835520e+07   8.198491e+06  -2.051724e+05   4.351542e+05
  -2.239833e+05   6.839053e+06   4.645140e+06  -3.329222e+05   4.866336e+06  -2.034496e+07  -2.812758e+06   1.185677e+06
  -9.148771e+06   5.715584e+05   1.247806e+06   2.054001e+05  -7.408521e+06   7.989629e+06   1.224426e+07  -8.020248e+06
  -7.558552e+06   1.578696e+06  -1.039149e+07  -5.543103e+05  -2.067009e+07  -1.669687e+07  -5.645826e+06   7.002063e+06
   1.307720e+06  -1.790334e+06  -3.305052e+06  -2.173635e+04  -2.417527e+07   5.886240e+07  -6.137978e+06  -2.643191e+06
   7.386571e+05   4.214335e+06   9.969973e+05  -2.309209e+05  -2.561952e+06  -4.069540e+07  -2.220641e+06   4.660999e+06
  -2.232939e+06  -1.114431e+06  -3.595847e+06  -3.739746e+04  -2.529204e+07   6.468823e+07  -3.455004e+06  -2.586522e+06
   5.985305e+05   5.678632e+06  -1.131252e+06   1.115660e+05  -3.708335e+07  -2.287006e+08  -1.858534e+05  -8.023380e+06
   9.992581e-01   9.969680e-01   9.998306e-01   9.988624e-01   9.998203e-01   1.000452e+00   9.993542e-01   1.000027e+00
   6.969164e-05  -4.606422e-06   3.396795e-04   1.762402e-04   2.650502e-04  -3.274442e-04  -2.732222e-04  -8.723259e-05
  -4.218138e-04  -8.266545e-04  -3.478394e-05   2.321423e-04  -2.118169e-05   4.693701e-04  -8.642643e-05  -8.073251e-04
   1.679842e-04  -9.477826e-04  -3.553919e-05   6.995484e-04  -2.840102e-04   1.264281e-03  -4.794505e-05   6.290895e-04
   9.996745e-01   9.996249e-01   9.991846e-01   9.996369e-01   9.997323e-01   1.001053e+00   9.995183e-01   1.000476e+00
   2.615853e-04  -1.121096e-03   1.086101e-05  -3.405905e-04   3.670344e-04  -2.289235e-03   5.456180e-05   1.015069e-03
  -8.071263e-05  -1.831228e-03  -1.736621e-04  -2.521044e-04   3.962834e-04   3.192327e-03   3.012062e-04  -9.737433e-04
  -2.839325e-04  -1.124810e-03  -2.072436e-05   3.005374e-04  -3.687120e-04   9.239612e-04   3.132573e-04  -1.354840e-04
   9.993245e-01   1.002091e+00   9.996747e-01   1.000122e+00   9.986993e-01   9.957021e-01   9.992913e-01   9.837948e-01
   1.000000e+00   9.999998e-01   1.000000e+00   9.999999e-01   9.999999e-01   9.999988e-01   1.000000e+00   9.999999e-01
  -4.918450e-05   4.726740e-04   1.877006e-04  -2.618077e-04   2.746645e-04  -7.982975e-04  -1.127038e-04  -3.583718e-04
  -1.706948e-04   5.027893e-04   6.945700e-05   2.423559e-04  -2.088347e-04  -1.363351e-03  -1.939404e-04   8.378398e-05
   4.923108e-05  -4.726748e-04  -1.877017e-04   2.618854e-04  -2.745876e-04   7.961019e-04   1.126787e-04   3.583231e-04
   1.000000e+00   9.999999e-01   1.000000e+00   9.999999e-01   9.999999e-01   9.999984e-01   1.000000e+00   9.999998e-01
   2.729076e-04   1.542529e-06   1.578011e-05  -3.206226e-04   3.682154e-04  -1.610159e-03  -1.294574e-04   5.800009e-04
   1.706813e-04  -5.027886e-04  -6.945404e-05  -2.422720e-04   2.089358e-04   1.364635e-03   1.939550e-04  -8.399182e-05
  -2.729160e-04  -1.780184e-06  -1.579315e-05   3.206861e-04  -3.681580e-04   1.609072e-03   1.294355e-04  -5.799709e-04
   9.999999e-01   9.999999e-01   1.000000e+00   9.999999e-01   9.999999e-01   9.999978e-01   1.000000e+00   9.999998e-01
   9.992581e-01   9.969691e-01   9.998306e-01   9.988626e-01   9.998204e-01   1.000456e+00   9.993542e-01   1.000027e+00
   9.996746e-01   9.996248e-01   9.991846e-01   9.996369e-01   9.997324e-01   1.001053e+00   9.995183e-01   1.000476e+00
   9.993246e-01   1.002091e+00   9.996747e-01   1.000122e+00   9.986994e-01   9.957029e-01   9.992912e-01   9.837952e-01
   1.188582e-04  -4.765384e-04   1.521323e-04   4.379577e-04  -9.540907e-06   4.707573e-04  -1.605371e-04   2.712726e-04
  -2.512349e-04  -1.329964e-03  -1.042174e-04  -1.024841e-05   1.873816e-04   1.826317e-03   1.073972e-04  -8.895920e-04
  -1.112564e-05  -1.123270e-03  -4.933530e-06  -1.992608e-05  -6.505531e-07  -6.874493e-04   1.839153e-04   4.447860e-04
  -7.416278e-04  -3.025317e-03  -1.694005e-04  -1.136641e-03  -1.795182e-04   4.583552e-04  -6.455554e-04   2.766876e-05
  -3.253592e-04  -3.743750e-04  -8.150362e-04  -3.629804e-04  -2.675733e-04   1.054061e-03  -4.815100e-04   4.764995e-04
  -6.751176e-04   2.094312e-03  -3.252605e-04   1.222025e-04  -1.299773e-03  -4.285918e-03  -7.084923e-04  -1.607303e-02
   1.187962e-04  -4.749799e-04   1.520577e-04   4.376292e-04  -9.538835e-06   4.704849e-04  -1.604367e-04   2.711431e-04
  -2.510575e-04  -1.329071e-03  -1.041920e-04  -1.024757e-05   1.872429e-04   1.822648e-03   1.073097e-04  -8.823360e-04
  -1.113500e-05  -1.123917e-03  -4.938643e-06  -1.992593e-05  -6.509369e-07  -6.859044e-04   1.837972e-04   4.411674e-04
  -5.807016e-04  -4.351266e-04  -4.365658e-04  -4.591398e-04  -5.822882e-04  -9.245006e-04  -6.118526e-04  -5.189621e-03
   4.119419e-04   3.616747e-03   4.434785e-04   8.907886e-04   7.511574e-04   4.095026e-03   3.361922e-04   1.095040e-02
  -7.428102e-04  -3.049551e-03  -1.694834e-04  -1.139851e-03  -1.797369e-04   4.450274e-04  -6.464703e-04   2.556330e-05
  -3.255940e-04  -3.771847e-04  -8.164708e-04  -3.633867e-04  -2.677122e-04   1.053414e-03  -4.821775e-04   4.762141e-04
  -6.762371e-04   2.080881e-03  -3.254794e-04   1.221636e-04  -1.303152e-03  -4.327875e-03  -7.094991e-04  -1.660932e-02
   1.189572e-04  -4.805343e-04   1.522331e-04   4.387400e-04  -9.501930e-06   4.690785e-04  -1.609068e-04   2.710218e-04
  -2.518111e-04  -1.330623e-03  -1.043078e-04  -9.799185e-06   1.880363e-04   1.845222e-03   1.076308e-04  -9.135565e-04
  -1.118522e-05  -1.120473e-03  -4.901408e-06  -2.019125e-05  -1.084244e-06  -6.813440e-04   1.842804e-04   4.456232e-04
  -5.815471e-04  -4.486181e-04  -4.371445e-04  -4.603581e-04  -5.835337e-04  -9.431446e-04  -6.127157e-04  -5.369182e-03
   4.130000e-04   3.622355e-03   4.443408e-04   8.930990e-04   7.534559e-04   4.126975e-03   3.370618e-04   1.130858e-02
  -2.727251e-01  -8.380481e-01  -1.780098e-02  -2.829537e-01   1.994974e-01   2.998168e-01  -2.050016e-03   2.017070e-01
  -1.820871e-02  -2.856287e-01   3.418689e-02   8.160151e-02   3.165613e-02  -3.224570e-01  -1.986741e-01   8.227599e-02
  -2.577223e-01   1.284994e-01  -1.028135e-02   2.706191e-02  -9.772702e-02   2.434831e-01  -5.344879e-03   1.764580e-03
  -1.364134e-02   7.608829e-02   3.308110e-03   2.032317e-01  -9.625395e-02   1.275878e-01  -1.360469e-01   4.274972e-02
  -9.704553e-02   4.171316e-01  -9.642030e-02  -6.377147e-02   1.455940e-01   2.051447e-01  -4.658604e-01  -4.168668e-01
   1.833903e-01  -4.498375e-01   1.028073e-02  -1.305927e-01   3.665386e-01  -3.233977e-01   7.096021e-02  -5.484180e-01
  -1.257192e-01  -9.764801e-01  -2.210010e-02  -1.013006e-01   4.852855e-01   1.705481e+00   1.046891e-01  -6.686967e-02
  -5.243006e-02  -5.596148e-01   1.343627e-02   1.120510e-01  -2.825286e-01  -1.052803e-01   4.407030e-01   2.568148e-01
  -2.403875e-01   9.465649e-01  -5.160643e-02   8.013200e-02  -1.047744e+00   6.857346e-01  -1.649100e-01  -6.363300e-01
  -2.727251e-01  -8.380481e-01  -1.780098e-02  -2.829537e-01   1.994974e-01   2.998168e-01  -2.050016e-03   2.017070e-01
  -9.704553e-02   4.171316e-01  -9.642030e-02  -6.377147e-02   1.455940e-01   2.051447e-01  -4.658604e-01  -4.168668e-01
  -2.403875e-01   9.465649e-01  -5.160643e-02   8.013200e-02  -1.047744e+00   6.857346e-01  -1.649100e-01  -6.363300e-01
  -1.592502e-02  -1.047702e-01   1.874750e-02   1.424166e-01  -3.229891e-02  -9.743459e-02  -1.673605e-01   6.251286e-02
  -1.917208e-01  -4.239904e-01  -1.619072e-02  -3.711932e-02   1.937792e-01   9.744821e-01   4.967213e-02  -3.255254e-02
   6.548012e-02  -5.047261e-01   1.185850e-02  -9.270843e-03   4.200501e-02  -2.143390e-01   2.558316e-01  -1.458016e-01
  -2.283685e-03  -1.808585e-01   1.543939e-02  -6.081509e-02   6.395504e-02  -2.250224e-01  -3.131358e-02   1.976314e-02
  -6.600155e-02   5.524898e-01   5.909372e-03   6.418123e-02  -2.915063e-01  -7.309990e-01  -5.501701e-02   3.431712e-02
   1.179102e-01   5.488865e-02  -1.577769e-03  -1.213219e-01   3.245336e-01  -1.090587e-01  -1.848714e-01  -4.026164e-01
   3.897856e+02   1.536776e+03   6.395855e+02   7.360428e+01   2.305718e+03   2.647560e+03   1.929178e+03   1.042891e+03
   1.455457e+07   1.045199e+07   1.443236e+07   9.122682e+05   6.262133e+07   2.499253e+08   1.603870e+07   1.472134e+07
   1.455470e+07   1.045377e+07   1.443246e+07   9.122643e+05   6.262257e+07   2.499196e+08   1.603878e+07   1.472181e+07
   1.455452e+07   1.045352e+07   1.443236e+07   9.122626e+05   6.262149e+07   2.499227e+08   1.603800e+07   1.472145e+07
   1.731045e+00   1.731297e+00   1.731294e+00   1.731255e+00   1.731042e+00   1.730449e+00   1.730991e+00   1.723039e+00
   1.731045e+00   1.731297e+00   1.731294e+00   1.731255e+00   1.731042e+00   1.730449e+00   1.730991e+00   1.723039e+00
   5.105954e-01   1.828997e+00   1.197372e-01   4.232218e-01   1.276031e+00   1.950919e+00   7.158550e-01   9.995835e-01
   4.734756e-01   1.631960e+00   1.174114e-01   3.661192e-01   1.113319e+00   1.616263e+00   6.603626e-01   8.196528e-01
   1.911242e-01   8.257936e-01   2.348552e-02   2.123050e-01   6.235194e-01   1.092601e+00   2.763506e-01   5.721332e-01
  -1.485824e+02  -6.864903e+02  -2.382905e+02  -2.781646e+01  -1.096000e+03  -1.075313e+03  -7.566747e+02  -4.708240e+02
   3.351845e+02   1.377840e+03   5.437529e+02   6.441307e+01   1.591456e+03   2.285463e+03   1.799418e+03   8.312361e+02
  -3.658463e+02  -1.506659e+03  -5.996378e+02  -6.786574e+01  -2.094945e+03  -2.582759e+03  -1.954659e+03  -8.883276e+02
  -8.519271e+01  -6.346052e+02  -8.265401e+01  -2.121031e+01  -9.060839e+02  -5.134769e+02  -2.117843e+02  -5.776447e+02
   5.291690e+00   8.179320e+01  -3.257975e+01   5.626672e+00  -2.869706e+02  -1.297047e+02  -1.035809e+02   5.350011e+01
  -8.729759e-01  -1.290316e-01   2.892329e-01   1.459050e-01   1.413389e-01   2.085261e-01   3.476310e-01  -2.122364e-01
  -4.723301e-01   6.643260e-01  -9.366395e-01   8.796099e-01  -9.352084e-01  -3.093898e-01  -9.194385e-01   2.668575e-02
  -1.217262e-01  -7.362213e-01  -1.976128e-01  -4.527672e-01  -3.246668e-01   9.277903e-01  -1.838087e-01   9.768539e-01
   2.336319e-01  -9.535660e-01   9.355989e-01  -9.336202e-01   1.554336e-01   9.621093e-01  -2.790242e-01  -3.608303e-01
  -6.239825e-01   1.206283e-01   3.202653e-01   2.737981e-01  -3.029272e-01  -1.055083e-01  -2.885960e-01  -9.311266e-01
   7.456956e-01   2.759722e-01  -1.486094e-01   2.310584e-01   9.402529e-01  -2.514233e-01   9.158918e-01  -5.295930e-02
  -4.281695e-01   2.721446e-01  -2.024820e-01   3.272081e-01  -9.776828e-01  -1.756774e-01  -8.951526e-01   9.081615e-01
   6.225352e-01   7.376447e-01   1.419036e-01   3.890000e-01  -1.833585e-01  -9.450640e-01  -2.671053e-01  -3.637184e-01
   6.550731e-01   6.179139e-01  -9.689502e-01   8.611701e-01   1.025475e-01  -2.756655e-01  -3.568705e-01   2.072480e-01
  -1.585071e+07  -3.850613e+06  -1.187062e+07  -5.926523e+05  -5.623940e+07  -2.537621e+08  -1.697289e+07  -9.973910e+06
  -5.982092e+05   1.654953e+06  -2.546815e+06   9.925499e+03  -6.421939e+06  -1.746524e+06  -1.784469e+06  -3.410028e+06
   3.919909e+06   7.677550e+06   2.083701e+05   6.494205e+05   2.510124e+06   4.801436e+06   9.335216e+06   1.377583e+07
  -6.601443e-01   8.918227e-01   1.619783e-01   1.849132e-01   1.193584e-01  -1.641634e-01  -6.678256e-01  -4.117471e-01
  -7.476944e-01  -1.790803e-01  -9.311092e-01  -9.827185e-01   5.917682e-01   2.648232e-01   7.415332e-01  -5.596799e-02
  -7.185056e-02  -4.154305e-01  -3.268007e-01   8.455141e-03   7.972227e-01  -9.502205e-01   6.432272e-02   9.095779e-01
  -4.395764e-01  -2.161240e-01   9.672704e-01  -3.904557e-01   6.750451e-01  -6.925818e-01  -3.274898e-01  -6.964794e-01
   3.069887e-01  -9.753966e-01   2.153654e-01  -8.135996e-02   5.404432e-01  -7.168740e-01  -2.151310e-01  -6.243503e-01
   8.441152e-01  -4.349694e-02  -1.341856e-01  -9.170196e-01  -5.022303e-01  -8.013745e-02  -9.200376e-01  -3.536992e-01
  -6.090829e-01  -3.974200e-01  -1.953230e-01   9.018600e-01  -7.280575e-01   7.024107e-01  -6.684006e-01   5.876911e-01
   5.888217e-01   1.285760e-01   2.943695e-01   1.662677e-01   5.981066e-01  -6.449498e-01  -6.354897e-01  -7.791369e-01
  -5.313257e-01  -9.085844e-01  -9.355189e-01  -3.987525e-01  -3.349638e-01  -3.010963e-01   3.865145e-01   2.180939e-01
  -4.520270e-01  -9.692661e-01  -1.051036e-01  -3.550323e-01  -1.078914e+00  -5.060140e-01  -6.564864e-01  -7.090805e-01
  -1.396791e-01   1.968060e-01  -5.151591e-02  -9.721753e-04   1.399751e-01   1.712865e-01  -3.728067e-02  -3.530693e-01
  -1.845196e-02   1.298108e+00  -9.208253e-03   8.941135e-02   2.362866e-01   1.525424e+00   6.094670e-02   2.106600e-01
  -7.232514e-01   9.530241e-01   2.510602e-01   8.971674e-01   1.506938e-01   7.632755e-01  -2.522076e-01  -1.357625e-03
   9.376002e-02   1.645900e-01  -9.261992e-01  -4.365444e-01   3.786183e-02  -8.831959e-02  -8.477138e-01  -4.462327e-01
  -6.841904e-01   2.542740e-01   2.812895e-01   6.722774e-02  -9.878552e-01  -6.400080e-01   4.666612e-01  -8.949159e-01
  -4.760526e-01   2.640795e-01   2.454248e-01   4.022996e-01  -2.681024e-01  -1.763498e-01   4.204170e-01  -1.260109e-01
  -7.854140e-01  -8.626517e-01   3.420094e-01   8.704670e-01  -9.602518e-01  -9.814757e-01   3.383677e-01   8.878596e-01
   3.955993e-01  -4.313862e-01   9.070812e-01   2.836235e-01  -7.770195e-02  -7.487401e-02   8.418770e-01  -4.425230e-01
  -5.002813e-01  -1.483480e-01   9.363415e-01   1.823338e-01  -9.515316e-01   6.215395e-01  -8.715738e-01   9.920279e-01
   6.118283e-01  -4.782700e-01   1.586965e-01   2.274121e-01   2.765556e-01  -1.700148e-01   4.085201e-01   1.121684e-01
   6.126865e-01   8.655927e-01  -3.131772e-01  -9.565763e-01  -1.345532e-01   7.647115e-01   2.710543e-01  -5.743559e-02
      10      13       4       1      11      14       5       2
      11      14       5       2      12      15       6       3
      13      16       7       4      14      17       8       5
      14      17       8       5      15      18       9       6
      19      22      13      10      20      23      14      11
      20      23      14      11      21      24      15      12
      22      25      16      13      23      26      17      14
      23      26      17      14      24      27      18      15
