     VARIABLES=
              x              y              z      nomin_den    nomin_voidr      fabric_xx      fabric_yy      fabric_zz      fabric_xy      fabric_xz      fabric_yz       sigma_xx       sigma_yy       sigma_zz       sigma_xy       sigma_xz       sigma_yz    sigmaDot_xx    sigmaDot_yy    sigmaDot_zz    sigmaDot_xy    sigmaDot_xz    sigmaDot_yz       Oldro_xx       Oldro_xy       Oldro_xz       Oldro_yx       Oldro_yy       Oldro_yz       Oldro_zx       Oldro_zy       Oldro_zz       Trues_xx       Trues_xy       Trues_xz       Trues_yx       Trues_yy       Trues_yz       Trues_zx       Trues_zy       Trues_zz           F_xX           F_xY           F_xZ           F_yX           F_yY           F_yZ           F_zX           F_zY           F_zZ           R_xX           R_xY           R_xZ           R_yX           R_yY           R_yZ           R_zX           R_zY           R_zZ           U_xX           U_yY           U_zZ           U_xY           U_xZ           U_yZ       Green_xx       Green_yy       Green_zz       Green_xy       Green_xz       Green_yz      Green_vol      Green_shr       Euler_xx       Euler_yy       Euler_zz       Euler_xy       Euler_xz       Euler_yz      Euler_vol      Euler_shr           l_xx           l_xy           l_xz           l_yx           l_yy           l_yz           l_zx           l_zy           l_zz           d_xx           d_yy           d_zz           d_xy           d_xz           d_yz           w_xy           w_xz           w_yz     norm_sigma  norm_sigmaDot     norm_Oldro     norm_Trues         norm_F         norm_U         norm_l         norm_d         norm_w              p              q        sigma_1        sigma_2        sigma_3     sigma_1_v1     sigma_1_v2     sigma_1_v3     sigma_2_v1     sigma_2_v2     sigma_2_v3     sigma_3_v1     sigma_3_v2     sigma_3_v3     sigmaDot_1     sigmaDot_2     sigmaDot_3  sigmaDot_1_v1  sigmaDot_1_v2  sigmaDot_1_v3  sigmaDot_2_v1  sigmaDot_2_v2  sigmaDot_2_v3  sigmaDot_3_v1  sigmaDot_3_v2  sigmaDot_3_v3            d_1            d_2            d_3         d_1_v1         d_1_v2         d_1_v3         d_2_v1         d_2_v2         d_2_v3         d_3_v1         d_3_v2         d_3_v3
ZONE I=2, J=2, K=2, DATAPACKING=POINT, STRANDID=5, SOLUTIONTIME=6
   5.004028e-03   5.006445e-03   4.703191e-03   1.657382e+03   5.989076e-01   3.608653e-01   3.623185e-01   2.768162e-01  -9.762258e-03   2.781098e-02   6.301199e-03  -1.341764e+03  -1.689711e+03  -1.383770e+03   4.989687e+01   6.196261e+01  -2.131311e+02   2.947171e+06   9.691575e+06  -5.208610e+05  -6.664019e+06  -2.406456e+05   5.763613e+06   2.946566e+06  -9.747598e+06  -3.936597e+05  -3.579168e+06   9.691644e+06   4.949076e+06  -8.908855e+04   6.575991e+06  -5.230289e+05   2.947796e+06  -9.747694e+06  -3.938306e+05  -3.579164e+06   9.693193e+06   4.949347e+06  -8.903117e+04   6.576111e+06  -5.217606e+05   9.923284e-01   2.481473e-03  -1.228609e-02   4.954904e-03   1.002612e+00  -4.635663e-03  -7.584634e-03  -6.931775e-03   9.873080e-01   9.999964e-01  -1.251162e-03  -2.381477e-03   1.253935e-03   9.999985e-01   1.163077e-03   2.380018e-03  -1.166059e-03   9.999965e-01   9.923130e-01   1.002616e+00   9.873284e-01   3.722177e-03  -9.942052e-03  -5.771544e-03  -7.601090e-03   2.642875e-03  -1.252520e-02   3.741429e-03  -9.851590e-03  -5.761029e-03  -5.827805e-03   1.649718e-02  -7.911310e-03   2.530790e-03  -1.315730e-02   3.652623e-03  -1.020667e-02  -5.827386e-03  -6.179273e-03   1.694128e-02  -2.456551e-01   1.385166e-01  -5.530440e-01   3.744362e-01   4.516297e-02  -1.087474e-01  -5.583426e-02  -4.528563e-01  -7.160545e-01  -2.456551e-01   4.516297e-02  -7.160545e-01   2.564764e-01  -3.044391e-01  -2.808018e-01  -1.179598e-01  -2.486049e-01   1.720545e-01   2.593132e+03   1.669286e+07   1.669161e+07   1.669287e+07   1.721927e+00   1.721927e+00   1.122671e+00   1.024571e+00   4.589589e-01  -1.471748e+03   4.139975e+02  -1.739781e+03  -1.394742e+03  -1.280721e+03  -6.689142e-02  -9.326573e-01  -3.545079e-01  -7.192690e-01   2.913200e-01  -6.307019e-01   6.915039e-01   2.127980e-01  -6.903183e-01  -4.089539e+06   2.316805e+06   1.389062e+07  -2.267783e-01  -4.668414e-01   8.547694e-01  -9.303978e-01  -1.556597e-01  -3.318585e-01   2.879784e-01  -8.705339e-01  -3.990479e-01  -8.904022e-01  -3.712540e-01   3.451095e-01  -3.624531e-01  -1.753724e-01  -9.153536e-01  -7.733654e-01   6.047009e-01   1.903754e-01   5.201286e-01   7.769049e-01  -3.548027e-01
   5.004028e-03   5.006445e-03   1.408618e-02   1.491382e+03   7.768759e-01   2.701299e-01   4.713854e-01   2.584847e-01  -8.602042e-02  -1.086235e-02  -6.382297e-02  -1.516842e+03  -2.205187e+03  -1.088766e+03  -8.658755e+02  -1.235030e+03  -1.249452e+02   5.527085e+06  -3.840872e+07   5.152619e+06   3.403187e+06   1.145387e+07  -1.445204e+06   5.525439e+06  -1.558225e+05   1.379602e+07   6.961000e+06  -3.840881e+07  -2.966261e+06   9.109221e+06   6.540248e+04   5.154593e+06   5.524111e+06  -1.566467e+05   1.379500e+07   6.960307e+06  -3.841074e+07  -2.966556e+06   9.108073e+06   6.547851e+04   5.153639e+06   9.864286e-01   6.743836e-04  -3.224794e-03   4.402463e-03   1.009121e+00  -6.979712e-03  -2.307946e-03  -2.486588e-02   1.018160e+00   9.999981e-01  -1.882078e-03  -4.918130e-04   1.886346e-03   9.999593e-01   8.825099e-03   4.751835e-04  -8.826010e-03   9.999609e-01   9.864340e-01   1.009298e+00   1.018060e+00   2.566117e-03  -2.754142e-03  -1.595964e-02  -1.346693e-02   9.471900e-03   1.835398e-02   2.582619e-03  -2.780807e-03  -1.618149e-02   4.786317e-03   2.697782e-02  -1.387516e-02   8.536027e-03   1.747867e-02   2.461097e-03  -2.686355e-03  -1.524767e-02   4.046512e-03   2.599095e-02  -2.442822e-01  -4.978380e-02  -3.311731e-01  -2.497096e-01   7.437760e-02   6.329979e-02   1.169281e-01  -2.370559e+00   1.045776e+00  -2.442822e-01   7.437760e-02   1.045776e+00  -1.497467e-01  -1.071225e-01  -1.153630e+00   9.996292e-02  -2.240506e-01   1.216929e+00   3.611504e+03   4.316200e+07   4.316165e+07   4.316243e+07   1.740321e+00   1.740321e+00   2.640188e+00   1.971896e+00   1.755624e+00  -1.603598e+03   2.829900e+03  -3.041642e+03  -1.942152e+03   1.729998e+02  -6.782544e-01  -5.966802e-01  -4.288865e-01   3.158520e-01  -7.637154e-01   5.630064e-01   6.634821e-01  -2.463969e-01  -7.064560e-01  -3.952616e+07  -3.139019e+06   1.493616e+07  -1.587152e-01   9.868440e-01   3.079734e-02  -6.668214e-01  -1.301449e-01   7.337653e-01   7.281200e-01   9.592338e-02   6.787046e-01  -7.575908e-01  -1.783395e-01   1.811802e+00  -3.374540e-01  -7.837433e-01  -5.214127e-01   9.413368e-01  -2.828020e-01  -1.841414e-01  -3.136940e-03  -5.529642e-01   8.331991e-01
   5.004028e-03   1.499536e-02   4.703191e-03   1.406723e+03   8.838114e-01   2.690656e-01   3.238923e-01   4.070422e-01  -3.391917e-02  -3.486559e-02   4.715878e-02  -1.668449e+03  -1.407743e+03  -3.421244e+03   1.359579e+02   8.248132e+02   4.748536e+01  -1.179274e+07   4.987154e+06  -6.861314e+06  -3.073678e+06  -9.165472e+06   2.470288e+07  -1.179181e+07   5.356389e+06  -2.193249e+07  -1.150408e+07   4.986845e+06   2.489443e+07   3.600317e+06   2.451166e+07  -6.868580e+06  -1.178996e+07   5.356168e+06  -2.193359e+07  -1.150416e+07   4.988410e+06   2.489433e+07   3.599582e+06   2.451166e+07  -6.864777e+06   1.005361e+00   2.258347e-04   6.501156e-04   3.596500e-03   9.975646e-01   6.089155e-04  -5.771596e-03   2.970244e-03   9.912414e-01   9.999934e-01  -1.682303e-03   3.219944e-03   1.686128e-03   9.999979e-01  -1.185515e-03  -3.217943e-03   1.190937e-03   9.999941e-01   1.005379e+00   9.975657e-01   9.912369e-01   1.898297e-03  -2.538620e-03   1.788326e-03   5.398353e-03  -2.427959e-03  -8.719845e-03   1.898822e-03  -2.532627e-03   1.775904e-03  -1.916484e-03   9.179735e-03   5.297713e-03  -2.451473e-03  -8.873451e-03   1.918921e-03  -2.603500e-03   1.823228e-03  -2.009070e-03   9.247478e-03   1.888492e-01  -3.714453e-01  -1.188642e-01   2.525827e-01  -8.291675e-02   6.817430e-02  -6.449128e-01  -4.655606e-03  -1.217450e+00   1.888492e-01  -8.291675e-02  -1.217450e+00  -5.943132e-02  -3.818885e-01   3.175935e-02  -3.120140e-01   2.630243e-01   3.641496e-02   4.235406e+03   4.567902e+07   4.568018e+07   4.567970e+07   1.728728e+00   1.728728e+00   1.470104e+00   1.351105e+00   5.794145e-01  -2.165812e+03   2.219126e+03  -3.642915e+03  -1.498905e+03  -1.355617e+03  -3.178587e-01   1.066521e-02   9.480781e-01  -7.552746e-01   6.016373e-01  -2.599862e-01   5.731720e-01   7.986982e-01   1.831805e-01  -3.141736e+07  -7.838092e+06   2.558855e+07   4.669940e-01   5.906514e-01  -6.580635e-01   8.639376e-01  -1.461308e-01   4.819312e-01  -1.884900e-01   7.935848e-01   5.785281e-01  -1.314674e+00  -9.397108e-02   2.971274e-01   2.456697e-01  -1.313792e-02   9.692646e-01   1.677092e-01   9.854054e-01  -2.915087e-02  -9.547356e-01   1.697161e-01   2.442876e-01
   5.004028e-03   1.499536e-02   1.408618e-02   1.457472e+03   8.182162e-01   2.954334e-01   3.396216e-01   3.649451e-01   8.860591e-02   7.387481e-02   1.597014e-02  -4.222661e+03  -4.128278e+03  -5.821948e+03  -7.776543e+02  -1.823758e+03  -9.894613e+01   2.163272e+07  -1.223476e+07   4.805828e+07  -1.118792e+05   1.411350e+06  -5.413583e+07   2.163498e+07   1.094261e+07   1.531625e+07  -1.115855e+07  -1.223272e+07  -2.497975e+07  -1.248240e+07  -8.327757e+07   4.806663e+07   2.163159e+07   1.094215e+07   1.531477e+07  -1.115934e+07  -1.223604e+07  -2.497974e+07  -1.248384e+07  -8.327774e+07   4.806196e+07   9.949054e-01   2.536670e-03   2.388595e-03   1.256957e-02   9.982172e-01   1.230202e-03   4.603758e-03   9.816017e-03   9.940831e-01   9.999867e-01  -5.040551e-03  -1.072447e-03   5.035877e-03   9.999780e-01  -4.316864e-03   1.094183e-03   4.311406e-03   9.999901e-01   9.949605e-01   9.982248e-01   9.940654e-01   7.574276e-03   3.482467e-03   5.504031e-03  -4.992062e-03  -1.729824e-03  -5.895782e-03   7.558052e-03   3.484203e-03   5.496002e-03  -4.205889e-03   1.179108e-02  -5.267478e-03  -1.883726e-03  -5.996719e-03   7.586763e-03   3.483230e-03   5.572666e-03  -4.382641e-03   1.186383e-02   8.212476e-02   2.348304e-01   3.301839e-01   5.082398e-01   1.436302e-01   3.209073e-01   3.970988e-01   9.677158e-01   5.763364e-01   8.212476e-02   1.436302e-01   5.763364e-01   3.715351e-01   3.636413e-01   6.443116e-01  -1.367047e-01  -3.345744e-02  -3.234042e-01   8.761641e+03   1.054637e+08   1.054604e+08   1.054581e+08   1.724751e+00   1.724751e+00   1.406824e+00   1.315431e+00   4.987943e-01  -4.724296e+03   3.945774e+03  -7.173840e+03  -4.329894e+03  -2.669154e+03  -5.637413e-01  -2.386448e-01  -7.907240e-01  -2.709252e-01  -8.509528e-01   4.499765e-01  -7.802533e-01   4.678974e-01   4.150624e-01  -7.346095e+07   2.425848e+07   1.066587e+08   1.691858e-01   8.047792e-01   5.689522e-01   9.845287e-01  -1.647096e-01  -5.978254e-02  -4.560016e-02  -5.702642e-01   8.201947e-01  -3.521556e-01  -1.085159e-01   1.262763e+00  -3.389218e-01   8.299041e-01  -4.431604e-01  -8.518797e-01  -7.079246e-02   5.189310e-01   3.992906e-01   5.533964e-01   7.309716e-01
   1.499252e-02   5.006445e-03   4.703191e-03   1.640541e+03   6.153210e-01   3.349831e-01   2.635490e-01   4.014678e-01  -4.982929e-02   5.667664e-03  -1.252486e-02  -9.640046e+02  -1.091271e+03  -2.431601e+03   2.547354e+02  -1.235231e+02  -4.047425e+02  -2.972518e+05  -1.529698e+06   1.252825e+07   4.010261e+06  -3.102278e+06   1.399865e+07  -2.972290e+05  -1.546645e+05  -9.003574e+06   8.176304e+06  -1.528654e+06   1.107239e+07   2.800372e+06   1.692505e+07   1.252233e+07  -2.965747e+05  -1.548173e+05  -9.003469e+06   8.176111e+06  -1.527913e+06   1.107270e+07   2.800434e+06   1.692529e+07   1.252398e+07   1.001962e+00   4.329882e-03   2.539371e-03  -1.684132e-03   1.005634e+00   7.579443e-03   1.334678e-02  -1.571903e-02   9.850001e-01   9.999806e-01   3.062581e-03  -5.422516e-03  -2.998825e-03   9.999267e-01   1.172697e-02   5.458033e-03  -1.171048e-02   9.999165e-01   1.002021e+00   1.005757e+00   9.849930e-01   1.228284e-03   7.892755e-03  -3.948160e-03   2.054719e-03   5.782330e-03  -1.485550e-02   1.217480e-03   7.839082e-03  -3.925053e-03  -2.339483e-03   1.630138e-02   1.837421e-03   5.576648e-03  -1.528776e-02   1.390267e-03   8.124118e-03  -4.283194e-03  -2.624565e-03   1.673491e-02   1.650119e-01   6.046474e-01   5.145026e-02  -2.227633e-02   3.669025e-01   2.865713e-01   4.089367e-01  -1.623927e-01  -1.210645e+00   1.650119e-01   3.669025e-01  -1.210645e+00   2.911855e-01   2.301935e-01   6.208932e-02   3.134618e-01  -1.787432e-01   2.244820e-01   2.920555e+03   2.691129e+07   2.690857e+07   2.690948e+07   1.727994e+00   1.727994e+00   1.507307e+00   1.382307e+00   6.009986e-01  -1.495626e+03   1.620974e+03  -2.519726e+03  -1.282350e+03  -6.848012e+02  -1.396107e-02  -2.380135e-01  -9.711615e-01  -6.831176e-01   7.115264e-01  -1.645616e-01   7.301749e-01   6.611201e-01  -1.725249e-01  -1.488535e+07  -1.051612e+05   2.569181e+07  -3.644824e-01   8.085431e-01  -4.619638e-01  -8.935798e-01  -1.640799e-01   4.178432e-01   2.620453e-01   5.650980e-01   7.823020e-01  -1.248277e+00  -2.376220e-02   5.933083e-01   1.588841e-01   9.307408e-03  -9.872534e-01  -7.866012e-01   6.055127e-01  -1.208836e-01   5.966694e-01   7.957812e-01   1.035276e-01
   1.499252e-02   5.006445e-03   1.408618e-02   1.360725e+03   9.474912e-01   2.644922e-01   3.096071e-01   4.259007e-01  -2.515021e-02  -1.653507e-02  -7.446413e-02  -9.461637e+02  -1.040890e+03  -2.008931e+03  -2.458918e+02  -1.942612e+02   8.693871e+02  -2.363649e+07  -1.411512e+07  -1.261225e+06  -1.225352e+07   6.929232e+06   2.530737e+06  -2.363647e+07  -1.028878e+07   4.144726e+06  -1.421801e+07  -1.411436e+07   1.402007e+07   9.716235e+06  -8.959397e+06  -1.261806e+06  -2.363601e+07  -1.028864e+07   4.144819e+06  -1.421791e+07  -1.411386e+07   1.401970e+07   9.716330e+06  -8.959868e+06  -1.260835e+06   1.010294e+00  -7.773879e-03   9.360997e-03   4.778284e-03   1.007392e+00   6.125027e-03   2.727997e-02  -1.330175e-02   9.392565e-01   9.999388e-01  -6.101154e-03  -9.224485e-03   6.192305e-03   9.999320e-01   9.885315e-03   9.163545e-03  -9.941831e-03   9.999086e-01   1.010512e+00   1.007504e+00   9.391449e-01  -1.657214e-03   1.800527e-02  -3.270433e-03   1.073067e-02   7.538435e-03  -5.883601e-02  -1.701585e-03   1.755476e-02  -3.198111e-03  -1.352230e-02   4.985097e-02   9.481982e-03   7.306182e-03  -6.704264e-02  -1.274217e-03   2.023842e-02  -4.140990e-03  -1.675149e-02   5.569498e-02   9.038313e-03  -2.899764e-01   3.860439e-01   6.474564e-01   4.154334e-01   2.415724e-01   8.281059e-01  -1.578809e+00  -9.079301e-01   9.038313e-03   4.154334e-01  -9.079301e-01   1.787400e-01   6.070749e-01  -6.686185e-01  -4.687164e-01  -2.210310e-01   9.101909e-01   2.783574e+03   3.815649e+07   3.815649e+07   3.815592e+07   1.708469e+00   1.708469e+00   2.210447e+00   1.640756e+00   1.481214e+00  -1.331995e+03   2.031561e+03  -2.615309e+03  -1.065273e+03  -3.154029e+02   3.581923e-02  -5.226989e-01   8.517646e-01  -9.150000e-01  -3.598837e-01  -1.823699e-01   4.018607e-01  -7.728322e-01  -4.911602e-01  -3.412709e+07  -1.541435e+07   1.052860e+07  -8.312821e-01  -5.474104e-01   9.649890e-02  -3.570149e-01   6.588758e-01   6.621352e-01   4.260405e-01  -5.159696e-01   7.431453e-01  -1.457234e+00   2.695981e-01   7.041777e-01   3.947511e-01  -3.421306e-01  -8.527123e-01   9.080441e-01   2.867907e-01   3.052982e-01  -1.400981e-01   8.948171e-01  -4.238807e-01
   1.499252e-02   1.499536e-02   4.703191e-03   1.464831e+03   8.090819e-01   2.096847e-01   4.122333e-01   3.780820e-01  -2.075930e-02  -4.777283e-02   2.726227e-02  -6.484824e+02  -1.525817e+03  -6.857875e+02   7.371662e+02   3.871681e+02  -1.029396e+02  -1.641372e+06   2.899661e+07  -8.150492e+05  -2.910355e+06   4.337049e+06   8.044058e+06  -1.641240e+06  -2.897093e+06   7.248772e+06  -2.923791e+06   2.899573e+07   1.036685e+07   1.425963e+06   5.721983e+06  -8.165517e+05  -1.640258e+06  -2.898131e+06   7.248057e+06  -2.924986e+06   2.899804e+07   1.036702e+07   1.425505e+06   5.722125e+06  -8.155134e+05   9.973333e-01  -4.639421e-03  -3.447932e-03  -8.747628e-03   9.917122e-01   1.260536e-03   6.725844e-03   7.851868e-03   9.897125e-01   9.999847e-01   2.065802e-03  -5.139426e-03  -2.082967e-03   9.999923e-01  -3.336799e-03   5.132493e-03   3.347453e-03   9.999812e-01   9.973707e-01   9.917213e-01   9.897074e-01  -6.664754e-03   1.629187e-03   4.566420e-03  -2.602300e-03  -8.211841e-03  -1.022785e-02  -6.624684e-03   1.603444e-03   4.518589e-03  -7.013998e-03   1.048736e-02  -2.757757e-03  -8.486854e-03  -1.044143e-02  -6.829340e-03   1.735125e-03   4.681521e-03  -7.228681e-03   1.080211e-02  -1.569835e-01  -1.572928e-01  -1.329728e-01  -3.557824e-01  -4.728886e-01   1.723608e-01   4.780575e-01   3.902247e-01  -8.841705e-01  -1.569835e-01  -4.728886e-01  -8.841705e-01  -2.565376e-01   1.725423e-01   2.812928e-01   9.924479e-02  -3.055152e-01  -1.089319e-01   2.155641e+03   3.249423e+07   3.249377e+07   3.249585e+07   1.719859e+00   1.719859e+00   1.268681e+00   1.174496e+00   4.796983e-01  -9.533624e+02   1.704753e+03  -2.031358e+03  -7.260902e+02  -1.026395e+02  -5.164405e-01   8.383780e-01   1.743890e-01   2.245388e-01   3.291024e-01  -9.172099e-01  -8.263604e-01  -4.345272e-01  -3.582102e-01  -3.794156e+06   6.227458e+04   3.027207e+07  -7.031303e-01  -1.826049e-01   6.872141e-01  -7.063215e-01   6.796301e-02  -7.046212e-01   8.196212e-02  -9.808346e-01  -1.767646e-01  -1.106204e+00  -3.944297e-01  -1.340929e-02  -2.811683e-01  -4.823741e-01   8.296141e-01   3.873985e-01   7.338672e-01   5.579976e-01  -8.779902e-01   4.782825e-01  -1.946923e-02
   1.499252e-02   1.499536e-02   1.408618e-02   1.329650e+03   9.930054e-01   3.497288e-01   3.970833e-01   2.531879e-01  -1.086763e-01  -3.089987e-03   2.094945e-03  -9.414930e+02  -4.055264e+02  -4.074586e+02   3.412901e+02   1.788875e+02  -4.316945e+01   4.079569e+06  -3.530830e+06  -1.362877e+07   1.980147e+07  -1.864943e+07   4.046180e+07   4.080644e+06   2.462656e+06  -2.291616e+07   3.714025e+07  -3.531339e+06   3.362153e+06  -1.438201e+07   7.756084e+07  -1.362814e+07   4.079759e+06   2.462902e+06  -2.291610e+07   3.714065e+07  -3.531720e+06   3.362204e+06  -1.438173e+07   7.756071e+07  -1.362852e+07   1.006151e+00  -1.307216e-03  -3.359856e-03  -2.613397e-03   1.002995e+00  -3.907393e-03   3.933802e-03  -6.605673e-03   9.874521e-01   9.999931e-01   6.432131e-04  -3.655051e-03  -6.382705e-04   9.999989e-01   1.353268e-03   3.655917e-03  -1.350925e-03   9.999924e-01   1.006160e+00   1.003002e+00   9.874516e-01  -1.971539e-03   2.527037e-04  -5.243524e-03   6.180794e-03   3.022074e-03  -1.245587e-02  -1.981233e-03   2.570654e-04  -5.218744e-03  -1.084335e-03   1.320126e-02   6.093116e-03   2.929131e-03  -1.281474e-02  -1.924985e-03   3.079749e-04  -5.348119e-03  -1.264164e-03   1.341478e-02   4.414866e-01  -2.194686e-01  -2.639965e-01  -5.193548e-02  -6.342153e-01  -3.510597e-01   8.930143e-01   2.858379e-01   1.133346e+00   4.414866e-01  -6.342153e-01   1.133346e+00  -1.357020e-01   3.145089e-01  -3.261086e-02  -8.376655e-02  -5.785054e-01  -3.184488e-01   1.256984e+03   9.142949e+07   9.142916e+07   9.142919e+07   1.730172e+00   1.730172e+00   1.733376e+00   1.455473e+00   9.413766e-01  -5.848260e+02   1.073486e+03  -1.297331e+03  -2.866848e+02  -1.704627e+02   8.243460e-01  -4.441801e-01  -3.509382e-01   2.129690e-01  -3.310492e-01   9.192663e-01  -5.244977e-01  -8.325325e-01  -1.783025e-01  -9.901732e+07   1.197094e+07   7.396635e+07   3.336849e-01  -6.691423e-01   6.640053e-01   9.036625e-01   2.649032e-02  -4.274253e-01  -2.684187e-01  -7.426620e-01  -6.135182e-01  -6.510945e-01   3.334146e-01   1.258298e+00   1.243266e-01   9.922342e-01  -3.779448e-03  -9.226266e-01   1.170047e-01   3.675187e-01   3.651068e-01  -4.220532e-02   9.300085e-01
