VARIABLES=
 x y z nomin_den nomin_voidr fabric_xx fabric_yy fabric_zz fabric_xy fabric_xz fabric_yz sigma_xx sigma_yy sigma_zz sigma_xy sigma_xz sigma_yz sigmaDot_xx sigmaDot_yy sigmaDot_zz sigmaDot_xy sigmaDot_xz sigmaDot_yz Oldro_xx Oldro_xy Oldro_xz Oldro_yx Oldro_yy Oldro_yz Oldro_zx Oldro_zy Oldro_zz Trues_xx Trues_xy Trues_xz Trues_yx Trues_yy Trues_yz Trues_zx Trues_zy Trues_zz F_xX F_xY F_xZ F_yX F_yY F_yZ F_zX F_zY F_zZ R_xX R_xY R_xZ R_yX R_yY R_yZ R_zX R_zY R_zZ U_xX U_yY U_zZ U_xY U_xZ U_yZ Green_xx Green_yy Green_zz Green_xy Green_xz Green_yz Green_vol Green_shr Euler_xx Euler_yy Euler_zz Euler_xy Euler_xz Euler_yz Euler_vol Euler_shr l_xx l_xy l_xz l_yx l_yy l_yz l_zx l_zy l_zz d_xx d_yy d_zz d_xy d_xz d_yz w_xy w_xz w_yz norm_sigma norm_sigmaDot norm_Oldro norm_Trues norm_F norm_U norm_l norm_d norm_w p q sigma_1 sigma_2 sigma_3 sigma_1_v1 sigma_1_v2 sigma_1_v3 sigma_2_v1 sigma_2_v2 sigma_2_v3 sigma_3_v1 sigma_3_v2 sigma_3_v3 sigmaDot_1 sigmaDot_2 sigmaDot_3 sigmaDot_1_v1 sigmaDot_1_v2 sigmaDot_1_v3 sigmaDot_2_v1 sigmaDot_2_v2 sigmaDot_2_v3 sigmaDot_3_v1 sigmaDot_3_v2 sigmaDot_3_v3 d_1 d_2 d_3 d_1_v1 d_1_v2 d_1_v3 d_2_v1 d_2_v2 d_2_v3 d_3_v1 d_3_v2 d_3_v3
ZONE T="stress" N=27, E=8, DATAPACKING=BLOCK, VARLOCATION=([4,5,6,7,8,9,10,11,12,13,14,15,16,17,18,19,20,21,22,23,24,25,26,27,28,29,30,31,32,33,34,35,36,37,38,39,40,41,42,43,44,45,46,47,48,49,50,51,52,53,54,55,56,57,58,59,60,61,62,63,64,65,66,67,68,69,70,71,72,73,74,75,76,77,78,79,80,81,82,83,84,85,86,87,88,89,90,91,92,93,94,95,96,97,98,99,100,101,102,103,104,105,106,107,108,109,110,111,112,113,114,115,116,117,118,119,120,121,122,123,124,125,126,127,128,129,130,131,132,133,134,135,136,137,138,139,140,141,142,143,144,145,146]=CELLCENTERED), ZONETYPE=FEBRICK, STRANDID=4, SOLUTIONTIME=21
   5.434732e-06   5.434732e-06   5.434732e-06   5.434732e-06   5.434732e-06   5.434732e-06   5.434732e-06   5.434732e-06   5.434732e-06   9.984202e-03   9.984202e-03   9.984202e-03   9.984202e-03   9.984202e-03   9.984202e-03   9.984202e-03   9.984202e-03   9.984202e-03   1.996297e-02   1.996297e-02   1.996297e-02   1.996297e-02   1.996297e-02   1.996297e-02   1.996297e-02   1.996297e-02   1.996297e-02
   1.295108e-05   1.295108e-05   1.295108e-05   1.000269e-02   1.000269e-02   1.000269e-02   1.999243e-02   1.999243e-02   1.999243e-02   1.295108e-05   1.295108e-05   1.295108e-05   1.000269e-02   1.000269e-02   1.000269e-02   1.999243e-02   1.999243e-02   1.999243e-02   1.295108e-05   1.295108e-05   1.295108e-05   1.000269e-02   1.000269e-02   1.000269e-02   1.999243e-02   1.999243e-02   1.999243e-02
   3.752206e-06   9.169072e-03   1.833439e-02   3.752206e-06   9.169072e-03   1.833439e-02   3.752206e-06   9.169072e-03   1.833439e-02   3.752206e-06   9.169072e-03   1.833439e-02   3.752206e-06   9.169072e-03   1.833439e-02   3.752206e-06   9.169072e-03   1.833439e-02   3.752206e-06   9.169072e-03   1.833439e-02   3.752206e-06   9.169072e-03   1.833439e-02   3.752206e-06   9.169072e-03   1.833439e-02
   1.705545e+03   1.457207e+03   1.435583e+03   1.557081e+03   1.655486e+03   1.413965e+03   1.506789e+03   1.368274e+03
   5.537551e-01   8.185469e-01   8.459395e-01   7.019019e-01   6.007384e-01   8.741621e-01   7.587071e-01   9.367471e-01
   3.943715e-01   3.652191e-01   2.951850e-01   3.590955e-01   3.484253e-01   3.485641e-01   2.877886e-01   4.316322e-01
   3.003342e-01   3.665170e-01   3.213254e-01   2.805150e-01   3.231966e-01   3.607061e-01   3.529118e-01   2.456779e-01
   3.052944e-01   2.682639e-01   3.834896e-01   3.603895e-01   3.283781e-01   2.907298e-01   3.592996e-01   3.226899e-01
   1.976329e-02  -1.810434e-02  -3.759322e-02  -4.657072e-03  -1.657011e-02   1.586177e-03   2.179628e-03  -3.099985e-03
   1.336251e-03  -5.062368e-02  -1.806411e-02   8.277924e-03  -1.488194e-02   1.999887e-02  -2.300033e-02  -2.344661e-02
   4.907555e-02   3.230973e-02   8.301269e-03   7.951840e-02  -1.913963e-03  -4.740901e-02  -4.662244e-02  -2.450539e-02
  -2.419874e+03  -9.773142e+02  -6.253571e+02  -1.736386e+03  -2.708754e+03  -1.590426e+03  -1.204275e+03  -1.420218e+02
  -1.456782e+03  -1.202382e+03  -9.158871e+02  -2.687260e+03  -1.974961e+03  -2.179653e+03  -2.333687e+03  -3.678099e+01
  -1.587245e+03  -9.592549e+02  -1.016194e+03  -3.500305e+03  -1.736646e+03  -2.261464e+03  -1.318010e+03  -1.199165e+02
  -2.125268e+02   1.263610e+02   1.614291e+02   3.526320e+02  -3.119560e+02   1.964763e+02  -2.296464e+02   2.970883e+01
   1.424533e+02  -1.805004e+02   1.493219e+02  -3.645114e+02  -1.647237e+02  -2.960498e+02   3.382033e+02  -6.470394e+00
  -2.667191e+02  -8.578306e+01   8.939454e+01  -5.832457e+02  -1.328618e+02   5.544275e+01   1.292315e+02   1.347768e+01
   3.381131e+06   3.098587e+06   2.204582e+06   3.426441e+06  -2.367676e+06   1.050337e+06   1.506772e+06   2.608506e+05
   3.475165e+05   2.324536e+06  -2.115667e+06  -5.557914e+06   1.089021e+06  -1.596649e+06   1.237854e+06  -4.428277e+04
  -3.554288e+06   9.767530e+05  -2.418879e+06   2.050024e+06  -2.695552e+06   1.215731e+06  -1.329163e+05   4.004196e+05
  -5.179250e+05   1.767672e+06  -2.275464e+05   5.893986e+06   3.192030e+06  -1.472976e+06  -3.762393e+06  -1.095815e+04
  -8.557543e+06  -5.145267e+05  -1.142094e+06   1.380612e+06  -3.821595e+06   7.453482e+06   2.409251e+06   4.507867e+05
  -3.027898e+06   8.024046e+05   5.609766e+05  -2.176608e+06  -2.440519e+06   4.265620e+06   4.550300e+06  -3.046828e+04
   3.380741e+06   3.098552e+06   2.204690e+06   3.425816e+06  -2.367696e+06   1.050385e+06   1.506744e+06   2.608406e+05
   1.282629e+06   6.079297e+05   1.148781e+06   1.757853e+06   5.648741e+06  -2.888683e+06   3.393813e+05  -9.713161e+04
  -1.719674e+07  -3.661587e+05  -1.354859e+06   3.671639e+06  -1.144591e+07   1.064107e+07   3.788197e+06   6.402430e+05
  -2.318181e+06   2.927516e+06  -1.603495e+06   1.003041e+07   7.350071e+05  -5.738733e+04  -7.861196e+06   7.520492e+04
   3.477363e+05   2.324763e+06  -2.115938e+06  -5.558498e+06   1.088834e+06  -1.596799e+06   1.237515e+06  -4.427386e+04
  -9.220920e+05  -3.616822e+05   4.673531e+05  -2.690664e+06  -5.260783e+05   1.181167e+06   2.210015e+06  -5.807030e+04
   8.136833e+04  -6.613371e+05  -9.290210e+05  -9.119288e+05   3.802518e+06   4.267702e+06   1.029956e+06   2.612283e+05
  -5.133853e+06   1.965217e+06   6.546273e+05  -1.663492e+06  -4.355328e+06   7.349640e+06   6.891253e+06  -2.910793e+03
  -3.554077e+06   9.778647e+05  -2.418762e+06   2.047662e+06  -2.695676e+06   1.216704e+06  -1.333049e+05   4.003730e+05
   3.380601e+06   3.097977e+06   2.204622e+06   3.426788e+06  -2.367507e+06   1.050192e+06   1.507215e+06   2.608723e+05
   1.282617e+06   6.080061e+05   1.148799e+06   1.757641e+06   5.648763e+06  -2.888668e+06   3.394630e+05  -9.713824e+04
  -1.719673e+07  -3.662601e+05  -1.354846e+06   3.671861e+06  -1.144590e+07   1.064104e+07   3.788071e+06   6.402475e+05
  -2.318194e+06   2.927589e+06  -1.603478e+06   1.003023e+07   7.350290e+05  -5.735436e+04  -7.861098e+06   7.519829e+04
   3.476520e+05   2.324056e+06  -2.116038e+06  -5.556994e+06   1.088971e+06  -1.597064e+06   1.238429e+06  -4.426565e+04
  -9.221068e+05  -3.617324e+05   4.673618e+05  -2.690381e+06  -5.260679e+05   1.181170e+06   2.209975e+06  -5.807294e+04
   8.137714e+04  -6.614482e+05  -9.290016e+05  -9.117425e+05   3.802532e+06   4.267666e+06   1.029817e+06   2.612267e+05
  -5.133870e+06   1.965167e+06   6.546380e+05  -1.663122e+06  -4.355320e+06   7.349650e+06   6.891192e+06  -2.914164e+03
  -3.554169e+06   9.773001e+05  -2.418872e+06   2.049622e+06  -2.695555e+06   1.216429e+06  -1.327886e+05   4.003998e+05
   9.929848e-01   9.551152e-01   1.035014e+00   1.026287e+00   1.051836e+00   1.000745e+00   9.951562e-01   1.021959e+00
   1.362187e-02   1.721477e-02   2.661098e-03   1.274815e-01   1.970267e-02  -3.129712e-03   4.525056e-03  -1.420296e-02
  -1.535730e-02  -6.399665e-02   1.105632e-02  -3.700117e-02   8.558619e-03  -2.964978e-02  -1.090172e-02  -5.124419e-02
   4.661810e-03  -1.144170e-02   1.123088e-02   4.958114e-03   5.190387e-02   2.380214e-02  -1.632023e-02  -3.445051e-03
   1.008413e+00   1.012532e+00   9.958502e-01   1.056323e+00   1.019467e+00   1.015811e+00   9.780063e-01   9.549700e-01
  -3.358993e-03  -9.597338e-03   7.384454e-03  -2.098396e-03   1.697574e-02   1.854201e-02   2.080952e-02  -1.553473e-02
  -1.320024e-02   7.408930e-02  -2.594069e-02   1.782147e-02   3.036743e-02   4.656764e-02   1.645520e-02   5.770094e-03
  -1.909406e-02  -8.504935e-02   1.316389e-02  -3.447829e-03  -1.914789e-02  -3.805695e-02   7.508766e-03  -2.742390e-03
   9.779366e-01   1.315029e+00   9.716895e-01   1.016109e+00   9.866589e-01   8.985061e-01   9.841310e-01   1.009065e+00
   9.999896e-01   9.980843e-01   9.998202e-01   9.979192e-01   9.998210e-01   9.990972e-01   9.998468e-01   9.995897e-01
   4.418555e-03   1.413846e-02  -4.273897e-03   5.868457e-02  -1.527784e-02  -1.280975e-02   1.071845e-02  -5.586110e-03
  -1.088449e-03  -6.023151e-02   1.847210e-02  -2.671012e-02  -1.115875e-02  -4.050572e-02  -1.383938e-02  -2.809481e-02
  -4.409825e-03  -1.217512e-02   4.329036e-03  -5.865157e-02   1.547677e-02   1.400705e-02  -1.062477e-02   5.401280e-03
   9.999591e-01   9.993865e-01   9.999863e-01   9.982765e-01   9.997189e-01   9.994692e-01   9.999203e-01   9.999633e-01
   7.897068e-03   3.283980e-02  -2.946044e-03   2.017703e-03   1.796320e-02   2.941442e-02   6.824955e-03  -6.650371e-03
   1.123298e-03   6.065886e-02  -1.845925e-02   2.678249e-02   1.088118e-02   4.010743e-02   1.391143e-02   2.813092e-02
  -7.892186e-03  -3.204357e-02   3.025481e-03  -4.469139e-04  -1.813269e-02  -2.995523e-02  -6.676869e-03   6.495894e-03
   9.999682e-01   9.976441e-01   9.998250e-01   9.996412e-01   9.997764e-01   9.987463e-01   9.998809e-01   9.995831e-01
   9.929392e-01   9.579190e-01   1.035355e+00   1.024338e+00   1.052781e+00   1.002043e+00   9.954061e-01   1.021684e+00
   1.008583e+00   1.014880e+00   9.958650e-01   1.061986e+00   1.019227e+00   1.016452e+00   9.779267e-01   9.549965e-01
   9.778957e-01   1.315471e+00   9.717019e-01   1.016728e+00   9.866477e-01   8.991260e-01   9.843067e-01   1.010187e+00
   9.153357e-03  -3.049064e-04   6.728695e-03   6.516883e-02   3.526885e-02   9.575264e-03  -5.762271e-03  -9.116219e-03
  -1.424382e-02   1.601097e-02  -6.850363e-03  -9.587176e-03   1.955583e-02   6.673469e-03   2.569518e-03  -2.292115e-02
  -1.114477e-02  -5.263449e-02   1.027693e-02  -4.720290e-03  -1.050567e-03  -8.002978e-03   1.412010e-02  -8.693122e-03
  -6.892558e-03  -4.106739e-02   3.602645e-02   2.680398e-02   5.498719e-02   2.113127e-03  -4.563482e-03   2.222303e-02
   8.723333e-03   1.637568e-02  -4.051042e-03   6.604126e-02   2.003399e-02   1.666505e-02  -2.171344e-02  -4.391152e-02
  -2.169648e-02   3.667448e-01  -2.782142e-02   1.692546e-02  -1.307136e-02  -9.573194e-02  -1.546713e-02   1.053956e-02
   9.239693e-03  -7.221242e-04   6.798531e-03   6.800427e-02   3.652839e-02   9.637106e-03  -5.667298e-03  -8.910297e-03
  -1.408711e-02   1.820761e-02  -6.839960e-03  -9.937842e-03   1.992283e-02   6.305380e-03   2.502772e-03  -2.324678e-02
  -1.113461e-02  -6.133085e-02   1.008722e-02  -5.218459e-03  -7.087972e-04  -7.633213e-03   1.384606e-02  -8.437314e-03
  -6.621901e-03   1.140177e-01   1.384664e-03   3.659024e-02   2.064994e-02  -2.565125e-02  -1.391469e-02  -3.716309e-03
   2.919348e-02   2.653845e-01   4.059647e-02   8.505287e-02   6.207545e-02   7.236311e-02   2.018030e-02   5.081813e-02
  -7.465646e-03  -4.557055e-02   3.309954e-02   2.517235e-02   4.537138e-02   7.346079e-04  -4.904541e-03   2.146236e-02
   7.910912e-03   9.664050e-03  -4.401613e-03   4.445282e-02   1.794272e-02   1.541949e-02  -2.286947e-02  -4.847934e-02
  -2.323000e-02   2.113389e-01  -2.945141e-02   1.570754e-02  -1.370366e-02  -1.172164e-01  -1.652299e-02   7.803786e-03
   8.860567e-03   3.352980e-03   6.920475e-03   5.945641e-02   3.265900e-02   9.967575e-03  -6.442717e-03  -8.979586e-03
  -1.484459e-02  -4.461506e-03  -8.086283e-03  -8.751170e-03   1.869966e-02   1.262000e-02   3.143719e-03  -2.167295e-02
  -1.135987e-02  -2.800170e-02   1.078899e-02  -1.371121e-03  -1.931495e-03  -1.272997e-02   1.490847e-02  -1.026862e-02
  -7.594910e-03   5.847746e-02  -2.511602e-04   2.844424e-02   1.653681e-02  -3.368744e-02  -1.476567e-02  -6.404398e-03
   2.989692e-02   1.595950e-01   4.034448e-02   7.144349e-02   5.530480e-02   8.723454e-02   2.180687e-02   5.202767e-02
  -9.374030e-02  -6.473607e-02   1.829260e-01  -5.924060e-02  -8.184512e-03  -4.857871e-02  -1.423225e-01  -4.133242e-02
   1.315479e-01   1.645033e-01   2.058107e-01   2.640578e-01   5.008414e-02  -9.644360e-02   5.183785e-01  -3.521246e-02
  -2.595387e-02   3.696179e-01   1.798522e-01  -3.194894e-01  -2.040914e-02   2.790371e-01  -1.135436e-01  -2.987645e-02
  -1.293324e-02  -1.533948e-01   5.946602e-02  -2.435264e-01  -8.555133e-02   1.089684e-01   3.400620e-01  -2.640258e-02
   7.633932e-02   8.873821e-02  -1.297441e-01  -1.290066e-01  -3.019266e-02  -2.653903e-02  -9.056453e-02   1.582350e-03
   5.400564e-03  -1.430308e-01   7.922344e-02  -5.366747e-02  -5.360205e-02  -7.327048e-02   2.814963e-01  -2.680067e-01
  -5.017680e-02   2.742327e-01   2.351902e-02   2.232493e-01  -2.065940e-02   1.384264e-01  -5.396488e-02  -3.416482e-01
  -7.877277e-02  -4.104387e-01  -6.648993e-02   6.577286e-02  -3.167988e-02  -2.134059e-02   2.491834e-02  -6.935123e-02
   7.526188e-02   5.645881e-01   5.544523e-02  -3.715573e-01  -3.130778e-02   1.964680e-01  -1.588276e-01  -1.834507e-01
  -9.374030e-02  -6.473607e-02   1.829260e-01  -5.924060e-02  -8.184512e-03  -4.857871e-02  -1.423225e-01  -4.133242e-02
   7.633932e-02   8.873821e-02  -1.297441e-01  -1.290066e-01  -3.019266e-02  -2.653903e-02  -9.056453e-02   1.582350e-03
   7.526188e-02   5.645881e-01   5.544523e-02  -3.715573e-01  -3.130778e-02   1.964680e-01  -1.588276e-01  -1.834507e-01
   5.930733e-02   5.554273e-03   1.326383e-01   1.026573e-02  -1.773360e-02   6.262395e-03   4.292202e-01  -3.080752e-02
  -3.806534e-02   3.219253e-01   1.016856e-01  -4.812008e-02  -2.053427e-02   2.087318e-01  -8.375425e-02  -1.857623e-01
  -3.668610e-02  -2.767348e-01   6.366758e-03   6.052693e-03  -4.264097e-02  -4.730554e-02   1.532073e-01  -1.686790e-01
   7.224057e-02   1.589490e-01   7.317233e-02   2.537921e-01   6.781773e-02  -1.027060e-01   8.915825e-02  -4.404940e-03
   1.211147e-02   4.769260e-02   7.816658e-02  -2.713694e-01   1.251306e-04   7.030537e-02  -2.978937e-02   1.558859e-01
   4.208667e-02   1.337040e-01   7.285668e-02  -5.972016e-02  -1.096109e-02  -2.596495e-02   1.282890e-01  -9.932774e-02
   3.281965e+03   1.852837e+03   1.541817e+03   4.868147e+03   3.813465e+03   3.558982e+03   3.000643e+03   1.961670e+02
   1.881862e+07   5.428289e+06   4.735465e+06   1.322304e+07   1.453336e+07   1.415318e+07   1.155579e+07   8.526736e+05
   1.881866e+07   5.428262e+06   4.735487e+06   1.322289e+07   1.453342e+07   1.415413e+07   1.155499e+07   8.525954e+05
   1.881865e+07   5.427582e+06   4.735550e+06   1.322259e+07   1.453338e+07   1.415408e+07   1.155498e+07   8.526204e+05
   1.720543e+00   1.919403e+00   1.734447e+00   1.794308e+00   1.767456e+00   1.687037e+00   1.707780e+00   1.725602e+00
   1.720543e+00   1.919403e+00   1.734447e+00   1.794308e+00   1.767456e+00   1.687037e+00   1.707780e+00   1.725602e+00
   2.172028e-01   8.843953e-01   3.779697e-01   6.681008e-01   1.284770e-01   4.070466e-01   7.305530e-01   4.812020e-01
   1.813937e-01   8.314582e-01   3.306304e-01   4.038838e-01   8.406865e-02   3.651792e-01   6.950672e-01   4.039600e-01
   1.194711e-01   3.013839e-01   1.831519e-01   5.321997e-01   9.715355e-02   1.798085e-01   2.249207e-01   2.614796e-01
  -1.821300e+03  -1.046317e+03  -8.524794e+02  -2.641317e+03  -2.140120e+03  -2.010514e+03  -1.618657e+03  -9.957310e+01
   1.127623e+03   4.790960e+02   5.706240e+02   2.073588e+03   1.111593e+03   9.574932e+02   1.340180e+03   1.127731e+02
  -2.479709e+03  -1.256536e+03  -1.095841e+03  -3.878346e+03  -2.873378e+03  -2.494111e+03  -2.435522e+03  -1.501341e+02
  -1.806289e+03  -1.149455e+03  -9.840145e+02  -2.557194e+03  -1.866388e+03  -2.129546e+03  -1.523662e+03  -1.224792e+02
  -1.177902e+03  -7.329601e+02  -4.775822e+02  -1.488411e+03  -1.680595e+03  -1.407886e+03  -8.967872e+02  -2.610602e+01
   9.765616e-01   3.926749e-01   2.558321e-01  -6.515704e-02   9.160458e-01   4.079416e-01   2.530190e-01   9.654547e-01
   1.855090e-01  -9.195050e-01   2.817261e-01  -4.705038e-01   3.455163e-01  -5.499487e-01   9.441952e-01  -2.394405e-01
  -1.091501e-01  -1.780273e-02  -9.247596e-01  -8.799890e-01   2.036628e-01   7.287936e-01  -2.108952e-01  -1.027886e-01
   2.745572e-02  -6.267814e-01  -4.603192e-01  -4.717231e-01   3.829537e-01  -4.958424e-02  -5.773799e-01   5.661055e-02
  -6.103354e-01  -2.534010e-01   8.766872e-01   7.916283e-01  -9.044072e-01   7.837106e-01   3.222818e-01  -1.923111e-01
  -7.916671e-01  -7.368399e-01   1.397349e-01  -3.883322e-01  -1.881331e-01   6.191438e-01   7.501779e-01   9.796998e-01
  -2.134796e-01   6.730168e-01   8.500919e-01   8.793360e-01  -1.191910e-01   9.116606e-01   7.762821e-01   2.543471e-01
   7.701150e-01   3.004969e-01   3.899359e-01   3.898086e-01  -2.503319e-01   2.887112e-01  -6.804266e-02   9.516747e-01
  -6.011235e-01  -6.758329e-01   3.539686e-01  -2.735277e-01   9.607952e-01  -2.924394e-01   6.267028e-01   1.721128e-01
  -7.247087e+06  -1.672297e+06  -2.966136e+06  -1.211372e+07  -7.935404e+06  -8.530243e+06  -1.001649e+07  -7.497861e+04
   1.761288e+06   2.257281e+06  -2.319549e+06   1.767197e+06  -3.834025e+05   4.461098e+05   1.597658e+06   8.794345e+04
   5.660159e+06   5.814892e+06   2.955720e+06   1.026507e+07   4.344599e+06   8.753551e+06   1.103054e+07   6.040226e+05
   1.205468e-01   4.780313e-01  -9.817314e-02  -5.385289e-01   5.526010e-01   2.955761e-01  -5.106760e-01  -3.630940e-01
   5.809400e-01  -6.439408e-01  -7.166205e-01   8.401730e-01  -3.983246e-01   6.960538e-01  -6.793958e-01   9.089035e-01
   8.049703e-01   5.973494e-01   6.905195e-01   6.400025e-02  -7.320995e-01  -6.543270e-01   5.269074e-01   2.050782e-01
  -7.324127e-01  -5.316007e-01  -3.627249e-01  -2.025048e-01   7.915527e-01  -8.634244e-01  -6.540259e-01  -7.010726e-01
  -4.953208e-01   3.292735e-01  -6.203722e-01  -5.532258e-02   5.258146e-01   4.877522e-01  -9.083305e-02  -4.114759e-01
   4.671497e-01   7.803715e-01  -6.953913e-01  -9.777173e-01   3.113893e-01   1.288257e-01  -7.509990e-01   5.823957e-01
   6.701045e-01  -6.992044e-01   9.267107e-01  -8.179110e-01  -2.609146e-01   4.088191e-01  -5.580861e-01   6.137263e-01
  -6.458839e-01  -6.905933e-01  -3.187374e-01  -5.394894e-01   7.515694e-01   5.268841e-01   7.281283e-01   6.768968e-02
   3.657785e-01  -1.849164e-01  -1.990322e-01   1.999319e-01  -6.058606e-01   7.451578e-01   3.979562e-01   7.866118e-01
  -1.159199e-01  -2.473442e-01  -1.823625e-01  -3.790293e-01  -8.317263e-02  -1.738898e-01  -6.082028e-01  -3.776590e-01
   4.016568e-02   4.330048e-02   1.564301e-02  -1.298784e-01   1.317418e-03  -2.491240e-02  -1.036216e-01   1.154545e-02
   1.336151e-01   7.926340e-01   2.753465e-01  -5.089679e-02   1.217026e-02   3.201524e-01   3.201098e-01   1.429128e-01
   9.534973e-01  -8.058612e-01  -3.709741e-01   1.496760e-01   3.396945e-01  -8.432427e-01  -6.682013e-01  -4.723199e-01
  -2.677076e-01   3.842536e-01   9.189208e-01  -3.007037e-02   6.560954e-01   1.964678e-01   6.572469e-01  -3.899555e-01
   1.384758e-01   4.504852e-01   1.340250e-01   9.882777e-01   6.739039e-01   5.003420e-01  -3.486167e-01  -7.904736e-01
   7.233190e-02   4.928249e-01   3.366316e-01  -1.121097e-01   9.283294e-01   2.248031e-01   3.363851e-01  -7.200636e-01
   6.492577e-01   8.569960e-01   2.675768e-01   9.925751e-01  -3.489493e-01   9.743970e-01  -1.510502e-01   6.879312e-01
   7.571212e-01   1.506036e-01  -9.028188e-01   4.718030e-02  -1.282147e-01  -3.745469e-03  -9.295315e-01   9.087943e-02
  -2.925936e-01   3.281940e-01   8.654810e-01  -9.823586e-01  -1.510372e-01   4.882676e-01  -6.635903e-01  -5.083526e-01
  -7.118968e-01  -3.433759e-01   2.898053e-01  -1.178573e-01  -6.691586e-01  -1.093201e-01  -7.383836e-01  -6.121154e-01
   6.384293e-01   8.799896e-01   4.086019e-01   1.451935e-01   7.276088e-01   8.658198e-01  -1.201562e-01   6.057164e-01
      10      13       4       1      11      14       5       2
      11      14       5       2      12      15       6       3
      13      16       7       4      14      17       8       5
      14      17       8       5      15      18       9       6
      19      22      13      10      20      23      14      11
      20      23      14      11      21      24      15      12
      22      25      16      13      23      26      17      14
      23      26      17      14      24      27      18      15
