     VARIABLES=
              x              y              z      nomin_den    nomin_voidr      fabric_xx      fabric_yy      fabric_zz      fabric_xy      fabric_xz      fabric_yz       sigma_xx       sigma_yy       sigma_zz       sigma_xy       sigma_xz       sigma_yz    sigmaDot_xx    sigmaDot_yy    sigmaDot_zz    sigmaDot_xy    sigmaDot_xz    sigmaDot_yz       Oldro_xx       Oldro_xy       Oldro_xz       Oldro_yx       Oldro_yy       Oldro_yz       Oldro_zx       Oldro_zy       Oldro_zz       Trues_xx       Trues_xy       Trues_xz       Trues_yx       Trues_yy       Trues_yz       Trues_zx       Trues_zy       Trues_zz           F_xX           F_xY           F_xZ           F_yX           F_yY           F_yZ           F_zX           F_zY           F_zZ           R_xX           R_xY           R_xZ           R_yX           R_yY           R_yZ           R_zX           R_zY           R_zZ           U_xX           U_yY           U_zZ           U_xY           U_xZ           U_yZ       Green_xx       Green_yy       Green_zz       Green_xy       Green_xz       Green_yz      Green_vol      Green_shr       Euler_xx       Euler_yy       Euler_zz       Euler_xy       Euler_xz       Euler_yz      Euler_vol      Euler_shr           l_xx           l_xy           l_xz           l_yx           l_yy           l_yz           l_zx           l_zy           l_zz           d_xx           d_yy           d_zz           d_xy           d_xz           d_yz           w_xy           w_xz           w_yz     norm_sigma  norm_sigmaDot     norm_Oldro     norm_Trues         norm_F         norm_U         norm_l         norm_d         norm_w              p              q        sigma_1        sigma_2        sigma_3     sigma_1_v1     sigma_1_v2     sigma_1_v3     sigma_2_v1     sigma_2_v2     sigma_2_v3     sigma_3_v1     sigma_3_v2     sigma_3_v3     sigmaDot_1     sigmaDot_2     sigmaDot_3  sigmaDot_1_v1  sigmaDot_1_v2  sigmaDot_1_v3  sigmaDot_2_v1  sigmaDot_2_v2  sigmaDot_2_v3  sigmaDot_3_v1  sigmaDot_3_v2  sigmaDot_3_v3            d_1            d_2            d_3         d_1_v1         d_1_v2         d_1_v3         d_2_v1         d_2_v2         d_2_v3         d_3_v1         d_3_v2         d_3_v3
ZONE I=2, J=2, K=2, DATAPACKING=POINT, STRANDID=5, SOLUTIONTIME=3
   5.003770e-03   5.002884e-03   4.807529e-03   1.624031e+03   6.317418e-01   4.242803e-01   2.864683e-01   2.892514e-01   5.647689e-02   1.865738e-02   3.030499e-03  -1.444003e+03  -5.634204e+02  -6.015453e+02  -3.924746e+02  -3.341505e+02  -1.372002e+02   1.370900e+05   7.958820e+05   2.018821e+06   6.038566e+05   3.627110e+06   4.117010e+05   1.365805e+05  -1.149170e+05   3.812881e+06   1.323252e+06   7.963109e+05   8.528621e+05   3.439894e+06  -2.974999e+04   2.018237e+06   1.368507e+05  -1.148663e+05   3.812936e+06   1.323348e+06   7.964164e+05   8.528587e+05   3.439964e+06  -2.969525e+04   2.018349e+06   9.981277e-01   1.668229e-04  -1.700101e-03   6.497796e-04   1.000595e+00   1.080826e-03  -1.149427e-03  -1.013065e-03   9.982214e-01   9.999999e-01  -2.422302e-04  -2.761774e-04   2.425194e-04   9.999994e-01   1.047761e-03   2.759234e-04  -1.047828e-03   9.999994e-01   9.981274e-01   1.000595e+00   9.982224e-01   4.092070e-04  -1.424406e-03   3.527338e-05  -1.869724e-03   5.955744e-04  -1.775022e-03   4.089206e-04  -1.421799e-03   3.496109e-05  -1.016391e-03   2.349756e-03  -1.880574e-03   5.947996e-04  -1.786300e-03   4.079602e-04  -1.432725e-03   3.348555e-05  -1.024025e-03   2.363026e-03  -1.660144e-01   8.370251e-02  -1.431314e-01   1.505556e-01   2.523617e-01   9.623584e-02  -2.790210e-01  -2.496848e-01  -2.734490e-01  -1.660144e-01   2.523617e-01  -2.734490e-01   1.171291e-01  -2.110762e-01  -7.672449e-02  -3.342654e-02   6.794477e-02   1.729603e-01   1.847946e+03   5.796650e+06   5.795640e+06   5.795798e+06   1.730289e+00   1.730289e+00   6.046799e-01   5.425307e-01   2.670172e-01  -8.696562e+02   1.489225e+03  -1.853692e+03  -4.917370e+02  -2.635391e+02   8.405194e-01   4.141417e-01   3.493047e-01   5.000612e-01  -3.449209e-01  -7.943352e-01   2.084848e-01  -8.423279e-01   4.970089e-01  -2.813300e+06   9.625031e+05   4.802590e+06   7.787487e-01  -2.900101e-01  -5.562774e-01  -1.104507e-01  -9.362618e-01   3.334884e-01  -6.175363e-01  -1.982624e-01  -7.611445e-01  -4.377343e-01  -6.352219e-02   3.141548e-01  -6.180735e-01   1.752608e-02  -7.859249e-01  -7.147379e-01   4.037351e-01   5.710933e-01  -3.273145e-01  -9.147080e-01   2.370114e-01
   5.003770e-03   5.002884e-03   1.440773e-02   1.294268e+03   1.047490e+00   2.543386e-01   4.655061e-01   2.801553e-01   8.206019e-02   6.439188e-02  -1.761206e-01  -1.057360e+02  -1.048766e+02  -5.946592e+01   5.189535e+01  -1.238581e+01   5.983025e+01  -6.268714e+06  -7.559972e+06  -7.722292e+06   1.106451e+07  -2.421425e+06   6.341246e+06  -6.268844e+06   9.717742e+06  -2.475039e+06   1.241117e+07  -7.559769e+06   8.636750e+06  -2.367829e+06   4.045435e+06  -7.722131e+06  -6.268918e+06   9.717772e+06  -2.475050e+06   1.241122e+07  -7.559843e+06   8.636799e+06  -2.367835e+06   4.045470e+06  -7.722173e+06   9.944041e-01  -7.451994e-04  -1.075334e-03  -5.028268e-04   1.001263e+00  -3.289678e-03  -3.755047e-03  -3.326505e-03   1.006422e+00   9.999991e-01  -1.192651e-04   1.339109e-03   1.192397e-04   1.000000e+00   1.898249e-05  -1.339112e-03  -1.882280e-05   9.999991e-01   9.944081e-01   1.001264e+00   1.006420e+00  -6.213538e-04  -2.423437e-03  -3.308493e-03  -5.573112e-03   1.270104e-03   6.448734e-03  -6.160001e-04  -2.423412e-03  -3.320450e-03   7.152422e-04   8.456940e-03  -5.654922e-03   1.244145e-03   6.340157e-03  -6.426865e-04  -2.407306e-03  -3.272396e-03   6.431267e-04   8.418879e-03  -8.496156e-01  -4.248657e-01   2.490009e-01   6.799378e-02   6.333487e-01  -6.469579e-01  -7.638707e-01  -5.919233e-01   9.182311e-01  -8.496156e-01   6.333487e-01   9.182311e-01  -1.784360e-01  -2.574349e-01  -6.194406e-01  -2.464297e-01   5.064358e-01  -2.751729e-02   1.973290e+02   2.252228e+07   2.252206e+07   2.252218e+07   1.733289e+00   1.733289e+00   1.888303e+00   1.711655e+00   7.974485e-01  -9.002618e+01   1.431876e+02  -1.797566e+02  -7.336670e+01  -1.695520e+01  -6.137592e-01   7.145383e-01  -3.357599e-01  -6.976131e-01  -2.917218e-01   6.543962e-01  -3.696427e-01  -6.358721e-01  -6.775182e-01  -2.092536e+07  -6.230600e+06   5.604985e+06  -6.408251e-01   6.942530e-01  -3.276521e-01   2.875803e-01  -1.786320e-01  -9.409507e-01  -7.117870e-01  -6.972111e-01  -8.518157e-02  -9.366327e-01   2.234870e-01   1.415110e+00   9.626672e-01   1.867313e-01   1.959676e-01   2.675493e-01  -7.663107e-01  -5.841107e-01  -4.110028e-02  -6.147352e-01   7.876620e-01
   5.003770e-03   1.499610e-02   4.807529e-03   1.384815e+03   9.136136e-01   3.527858e-01   3.080365e-01   3.391777e-01  -2.053895e-02  -4.142024e-02   1.452676e-02  -2.582784e+02  -3.170681e+02  -2.395996e+02   1.460643e+02   1.954837e+02  -1.583622e+02  -6.320737e+05   2.977158e+06   1.858632e+05  -4.987049e+06  -5.089963e+06  -1.449442e+06  -6.320186e+05  -3.538063e+06  -8.987769e+06  -6.435877e+06   2.976982e+06  -1.318385e+06  -1.192293e+06  -1.580554e+06   1.858960e+05  -6.319314e+05  -3.538138e+06  -8.987848e+06  -6.435901e+06   2.977089e+06  -1.318317e+06  -1.192346e+06  -1.580514e+06   1.859769e+05   9.998625e-01   4.807240e-04  -8.460349e-05   1.256587e-03   9.984248e-01   6.006104e-04  -7.196088e-04   3.042278e-04   9.989695e-01   9.999999e-01  -3.883893e-04   3.176828e-04   3.883422e-04   9.999999e-01   1.483863e-04  -3.177404e-04  -1.482629e-04   9.999999e-01   9.998631e-01   9.984245e-01   9.989695e-01   8.683577e-04  -4.017832e-04   4.525331e-04  -1.364357e-04  -1.573768e-03  -1.029749e-03   8.675234e-04  -4.013522e-04   4.517690e-04  -9.133175e-04   1.480731e-03  -1.392410e-04  -1.579853e-03  -1.032489e-03   8.715131e-04  -4.036700e-04   4.544808e-04  -9.171944e-04   1.486763e-03   6.316023e-03  -3.738151e-03  -1.298366e-01   4.442283e-01  -1.710537e-01   1.966658e-01  -1.966229e-01   1.222207e-01  -1.729190e-01   6.316023e-03  -1.710537e-01  -1.729190e-01   2.202451e-01  -1.632297e-01   1.594433e-01  -2.239832e-01   3.339313e-02   3.722257e-02   6.416344e+02   1.223412e+07   1.223408e+07   1.223419e+07   1.730468e+00   1.730468e+00   6.047201e-01   5.102433e-01   3.245585e-01  -2.716487e+02   3.659733e+02  -5.012303e+02  -2.283750e+02  -8.534078e+01  -5.521862e-01   5.878721e-01   5.911826e-01   5.678930e-01   7.843645e-01  -2.495393e-01  -6.103998e-01   1.979363e-01  -7.669637e-01  -6.091625e+06   7.267848e+05   7.895787e+06  -7.554623e-01  -5.868987e-01  -2.912502e-01  -2.757001e-01  -1.184975e-01   9.539118e-01   5.943620e-01  -8.009421e-01   7.228768e-02  -4.827522e-01  -1.902780e-02   1.641233e-01   4.870286e-01  -6.452320e-01   5.886245e-01  -1.544757e-01   5.996932e-01   7.851785e-01  -8.596164e-01  -4.733325e-01   1.923951e-01
   5.003770e-03   1.499610e-02   1.440773e-02   1.412142e+03   8.765817e-01   3.833776e-01   3.919298e-01   2.246925e-01  -3.181877e-02  -6.033373e-02  -5.789245e-02  -2.062674e+03  -2.800462e+03  -1.503847e+03   1.588847e+03   9.711648e+02  -1.283651e+02  -2.094603e+07  -2.165471e+07  -2.989020e+07   3.471799e+07  -1.214834e+07  -1.791833e+05  -2.094762e+07   4.736894e+07  -1.824972e+07   2.207006e+07  -2.165634e+07   4.511380e+06  -6.046290e+06  -4.868356e+06  -2.989215e+07  -2.094518e+07   4.736658e+07  -1.825083e+07   2.206866e+07  -2.165303e+07   4.511800e+06  -6.047467e+06  -4.868473e+06  -2.989037e+07   9.974555e-01   7.206404e-04   4.528623e-04   1.831096e-03   9.990959e-01  -4.194978e-04  -6.111091e-04   1.084543e-03   9.974133e-01   9.999997e-01  -5.560443e-04   5.341381e-04   5.564467e-04   9.999996e-01  -7.535055e-04  -5.337189e-04   7.538025e-04   9.999996e-01   9.974566e-01   9.990958e-01   9.974135e-01   1.276005e-03  -7.970961e-05   3.321032e-04  -2.539387e-03  -9.028912e-04  -2.583135e-03   1.273792e-03  -7.929327e-05   3.314727e-04  -2.008471e-03   1.881814e-03  -2.557160e-03  -9.070973e-04  -2.596195e-03   1.281995e-03  -8.020811e-05   3.345470e-04  -2.020151e-03   1.894347e-03  -2.602449e-01   1.702293e-01  -1.448660e-02   2.588514e-01  -1.513094e-01   1.547253e-01  -1.628255e-01   2.047612e-01  -7.697946e-01  -2.602449e-01  -1.513094e-01  -7.697946e-01   2.145404e-01  -8.865603e-02   1.797432e-01  -4.431107e-02   7.416943e-02  -2.501791e-02   4.665330e+03   7.032393e+07   7.032714e+07   7.032304e+07   1.728569e+00   1.728569e+00   9.336899e-01   9.249842e-01   1.272043e-01  -2.122328e+03   2.908089e+03  -3.797930e+03  -2.129074e+03  -4.399785e+02  -6.376356e-01   7.302133e-01   2.453761e-01   3.903879e-01   5.809044e-01  -7.142461e-01  -6.640920e-01  -3.596369e-01  -6.554717e-01  -4.342068e+07  -3.167855e+07   2.608291e+06   7.078321e-01  -7.035538e-01   6.313296e-02   1.198623e-01   2.077071e-01   9.708196e-01   6.961370e-01   6.796101e-01  -2.313514e-01  -8.546495e-01  -3.528276e-01   2.612827e-02  -2.488646e-01   3.103745e-01  -9.174607e-01  -7.821397e-01   4.942975e-01   3.793778e-01   5.712477e-01   8.119961e-01   1.197431e-01
   1.499665e-02   5.002884e-03   4.807529e-03   1.657606e+03   5.986912e-01   2.640025e-01   3.021891e-01   4.338084e-01   4.538553e-03   4.388712e-02   2.236282e-02  -1.535596e+03  -1.407588e+03  -4.121881e+03   1.281975e+02   2.876573e+02  -5.043688e+02  -1.108954e+07   2.264278e+06  -1.681908e+07  -1.008288e+06  -1.530857e+06  -4.479368e+06  -1.108848e+07   2.374988e+06  -3.590244e+06  -4.392535e+06   2.265914e+06  -2.847406e+06   5.295036e+05  -6.111664e+06  -1.683039e+07  -1.108775e+07   2.374933e+06  -3.590391e+06  -4.392602e+06   2.266583e+06  -2.847143e+06   5.293768e+05  -6.111447e+06  -1.682844e+07   1.001411e+00   6.612383e-04  -9.309446e-04  -9.669528e-04   1.001249e+00   2.152780e-03   3.941365e-03  -3.149782e-03   9.937557e-01   9.999967e-01   8.176444e-04  -2.440550e-03  -8.111538e-04   9.999961e-01   2.659323e-03   2.442715e-03  -2.657335e-03   9.999935e-01   1.001418e+00   1.001254e+00   9.937573e-01  -1.586247e-04   1.494775e-03  -4.887308e-04   1.419883e-03   1.254889e-03  -6.222015e-03  -1.592019e-04   1.491207e-03  -4.876303e-04  -1.182414e-03   5.359330e-03   1.403685e-03   1.248796e-03  -6.295378e-03  -1.517634e-04   1.524401e-03  -5.137477e-04  -1.214299e-03   5.413538e-03   2.924299e-01   9.786358e-02  -3.280040e-01  -1.628085e-01   4.220270e-01   4.031893e-01   9.158794e-01  -9.741405e-01  -1.189547e+00   2.924299e-01   4.220270e-01  -1.189547e+00  -3.247246e-02   2.939377e-01  -2.854756e-01   1.303360e-01  -6.219417e-01   6.886649e-01   4.694925e+03   2.223848e+07   2.224671e+07   2.224487e+07   1.730002e+00   1.730002e+00   1.942334e+00   1.420051e+00   1.325186e+00  -2.355021e+03   2.816512e+03  -4.226816e+03  -1.547710e+03  -1.290538e+03  -1.058612e-01   1.638354e-01   9.807912e-01  -9.082630e-01   3.855789e-01  -1.624416e-01   4.047860e-01   9.080126e-01  -1.079877e-01  -1.868660e+07  -1.218041e+07   5.222671e+06   1.068311e-01   2.990082e-01   9.482516e-01  -9.600198e-01  -2.171679e-01   1.766356e-01   2.587453e-01  -9.292105e-01   2.638535e-01  -1.289788e+00   3.045797e-01   5.101188e-01  -1.771903e-01   1.586219e-01   9.713098e-01  -8.855355e-01  -4.563493e-01  -8.701786e-02  -4.294536e-01   8.755481e-01  -2.213260e-01
   1.499665e-02   5.002884e-03   1.440773e-02   1.435307e+03   8.462952e-01   2.381702e-01   3.829225e-01   3.789073e-01  -4.256631e-02   3.124318e-03  -8.175001e-02  -1.557711e+03  -3.927805e+03  -4.423738e+03   4.815798e+02   1.049024e+03   2.071882e+03   1.652894e+07   4.869104e+07   6.358688e+07   2.383267e+07  -1.013333e+07  -2.395661e+06   1.653164e+07   2.694397e+07   3.869800e+06   2.071927e+07   4.869627e+07   9.284143e+05  -2.413575e+07  -5.736409e+06   6.359836e+07   1.652769e+07   2.694402e+07   3.873936e+06   2.072166e+07   4.868631e+07   9.334037e+05  -2.413456e+07  -5.730890e+06   6.358714e+07   1.003069e+00  -2.086146e-03   3.236973e-03   7.161206e-04   1.001878e+00  -3.453132e-03   8.554940e-03   2.257399e-03   9.878680e-01   9.999954e-01  -1.410758e-03  -2.670454e-03   1.403074e-03   9.999949e-01  -2.876924e-03   2.674499e-03   2.873164e-03   9.999923e-01   1.003088e+00   1.001882e+00   9.878617e-01  -6.743902e-04   5.874165e-03  -6.193739e-04   3.110346e-03   1.884368e-03  -1.204719e-02  -6.778853e-04   5.847793e-03  -6.181785e-04  -2.350825e-03   1.188437e-02   2.990955e-03   1.877186e-03  -1.238829e-02  -6.779129e-04   5.995218e-03  -5.754414e-04  -2.506716e-03   1.212587e-02   7.242243e-01  -2.804165e-01  -8.437150e-02  -2.206757e-01   2.836901e-01  -6.728590e-01   1.527428e+00  -2.805860e-01   1.527873e+00   7.242243e-01   2.836901e-01   1.527873e+00  -2.505461e-01   7.215282e-01  -4.767225e-01  -2.987039e-02  -8.058997e-01  -1.961365e-01   7.056488e+03   9.205417e+07   9.206474e+07   9.205114e+07   1.727974e+00   1.727974e+00   2.436869e+00   2.135570e+00   1.173743e+00  -3.303085e+03   4.955094e+03  -6.382822e+03  -2.797980e+03  -7.284530e+02  -6.037898e-02   6.749708e-01  -7.353698e-01  -6.250909e-01   5.488002e-01   5.550492e-01   7.782131e-01   4.931863e-01   3.887821e-01   1.783283e+05   4.843591e+07   8.019262e+07   8.877818e-01  -3.429502e-01   3.069669e-01   1.374428e-01   8.340404e-01   5.343090e-01  -4.392641e-01  -4.321594e-01   7.875819e-01   1.218983e-01   3.035152e-01   2.110374e+00   2.415881e-02   9.504697e-01   3.098769e-01  -8.755099e-01  -1.295173e-01   4.655187e-01   4.825958e-01  -2.825467e-01   8.290166e-01
   1.499665e-02   1.499610e-02   4.807529e-03   1.462401e+03   8.120887e-01   3.622048e-01   3.164736e-01   3.213215e-01  -5.037896e-03   2.834218e-02  -9.362923e-02  -6.628607e+01  -1.619816e+02  -7.547594e+01   2.518337e+01   4.003897e+01   3.286409e+01   6.328836e+05   8.317020e+05   2.097426e+06   2.285054e+05  -1.399785e+05  -1.732918e+06   6.328852e+05   1.965435e+05  -6.007531e+04   2.603442e+05   8.315404e+05  -1.647598e+06  -2.197953e+05  -1.818032e+06   2.097328e+06   6.329419e+05   1.965006e+05  -6.009492e+04   2.603441e+05   8.316789e+05  -1.647634e+06  -2.198442e+05  -1.818052e+06   2.097393e+06   9.988878e-01  -1.571520e-03  -2.870635e-04  -1.190811e-03   9.974322e-01   1.808598e-04   1.888819e-03   2.141265e-03   9.983720e-01   9.999994e-01  -1.910011e-04  -1.089908e-03   1.899295e-04   9.999995e-01  -9.831968e-04   1.090096e-03   9.829892e-04   9.999989e-01   9.988890e-01   9.974341e-01   9.983710e-01  -1.379743e-03   8.012918e-04   1.162303e-03  -1.109127e-03  -2.560953e-03  -1.626659e-03  -1.376741e-03   7.993922e-04   1.159313e-03  -1.765580e-03   2.427584e-03  -1.117947e-03  -2.583541e-03  -1.631929e-03  -1.390589e-03   8.059972e-04   1.169034e-03  -1.777806e-03   2.450296e-03  -1.366963e-01  -3.333893e-01  -3.727724e-02  -3.708988e-01  -5.491071e-01   3.694486e-02   5.190045e-01   4.623718e-01  -1.694121e-01  -1.366963e-01  -5.491071e-01  -1.694121e-01  -3.521440e-01   2.408636e-01   2.496583e-01   1.875473e-02  -2.781409e-01  -2.127135e-01   2.121231e+02   3.416198e+06   3.415982e+06   3.416095e+06   1.728990e+00   1.728990e+00   1.040926e+00   9.152076e-01   4.959055e-01  -1.012479e+02   1.405742e+02  -1.703470e+02  -1.215255e+02  -1.187108e+01   1.832196e-01   9.240777e-01  -3.354266e-01  -6.691227e-01   3.671933e-01   6.460990e-01   7.202121e-01   1.060635e-01   6.855983e-01  -4.672787e+05   6.006138e+05   3.428676e+06   7.895476e-02  -8.164400e-01  -5.720070e-01  -9.899503e-01   3.315754e-03  -1.413766e-01   1.173221e-01   5.774208e-01  -8.079732e-01  -9.061289e-01  -6.183407e-02   1.127474e-01  -4.830144e-01  -7.690990e-01   4.185497e-01  -2.592852e-01   5.822007e-01   7.705930e-01  -8.363422e-01   2.636837e-01  -4.806273e-01
   1.499665e-02   1.499610e-02   1.440773e-02   1.260921e+03   1.101638e+00   4.597160e-01   4.271719e-01   1.131122e-01  -3.968242e-02   6.663765e-02  -4.754926e-02  -1.081097e+03  -1.210649e+03  -2.343028e+02  -2.561326e+02  -2.739888e+02   1.497645e+02   6.649894e+06  -2.540170e+07   7.928854e+06  -3.777808e+07   9.136735e+06  -2.714791e+07   6.650248e+06  -4.618695e+07   1.516562e+07  -2.936946e+07  -2.540250e+07   7.602274e+06   3.107582e+06  -6.189929e+07   7.929059e+06   6.650066e+06  -4.618701e+07   1.516556e+07  -2.936950e+07  -2.540270e+07   7.602333e+06   3.107548e+06  -6.189930e+07   7.929020e+06   1.001563e+00  -3.136076e-04  -3.710096e-03   5.711252e-04   9.995560e-01  -1.942855e-03  -1.656519e-03  -7.348081e-05   9.812251e-01   9.999994e-01  -4.418643e-04  -1.035656e-03   4.408874e-04   9.999995e-01  -9.433185e-04   1.036072e-03   9.428613e-04   9.999990e-01   1.001561e+00   9.995555e-01   9.812299e-01   1.270082e-04  -2.694330e-03  -1.016056e-03   1.565506e-03  -4.438274e-04  -1.858984e-02   1.284478e-04  -2.671211e-03  -1.006465e-03  -5.822719e-03   1.323751e-02   1.551456e-03  -4.442932e-04  -1.933288e-02   1.271449e-04  -2.743325e-03  -1.028860e-03  -6.075240e-03   1.373172e-02   2.681785e-01   1.732552e-01  -5.744604e-01  -2.431082e-01  -3.417217e-01  -5.210932e-01  -2.241290e-02  -3.460938e-01   2.417463e-01   2.681785e-01  -3.417217e-01   2.417463e-01  -3.492649e-02  -2.984367e-01  -4.335935e-01   2.081817e-01  -2.760238e-01  -8.749970e-02   1.763190e+03   8.875257e+07   8.875332e+07   8.875340e+07   1.721936e+00   1.721936e+00   1.028630e+00   8.964987e-01   5.043509e-01  -8.420163e+02   1.045918e+03  -1.382173e+03  -9.538039e+02  -1.900724e+02   6.175881e-01   7.743313e-01   1.378260e-01   7.558612e-01  -6.327803e-01   1.681158e-01  -2.173909e-01  -3.510579e-04   9.760846e-01  -7.843529e+07   4.464489e+06   6.314785e+07  -2.525731e-01  -7.907254e-01  -5.576381e-01  -8.993598e-01  -2.071110e-02   4.367185e-01   3.568737e-01  -6.118206e-01   7.059155e-01  -6.082849e-01   1.311131e-01   6.453749e-01  -2.040201e-01  -8.412181e-01  -5.007273e-01  -7.949846e-01   4.408515e-01  -4.167126e-01   5.712926e-01   3.130527e-01  -7.586981e-01
