VARIABLES=
 x y z nomin_den nomin_voidr fabric_xx fabric_yy fabric_zz fabric_xy fabric_xz fabric_yz sigma_xx sigma_yy sigma_zz sigma_xy sigma_xz sigma_yz sigmaDot_xx sigmaDot_yy sigmaDot_zz sigmaDot_xy sigmaDot_xz sigmaDot_yz Oldro_xx Oldro_xy Oldro_xz Oldro_yx Oldro_yy Oldro_yz Oldro_zx Oldro_zy Oldro_zz Trues_xx Trues_xy Trues_xz Trues_yx Trues_yy Trues_yz Trues_zx Trues_zy Trues_zz F_xX F_xY F_xZ F_yX F_yY F_yZ F_zX F_zY F_zZ R_xX R_xY R_xZ R_yX R_yY R_yZ R_zX R_zY R_zZ U_xX U_yY U_zZ U_xY U_xZ U_yZ Green_xx Green_yy Green_zz Green_xy Green_xz Green_yz Green_vol Green_shr Euler_xx Euler_yy Euler_zz Euler_xy Euler_xz Euler_yz Euler_vol Euler_shr l_xx l_xy l_xz l_yx l_yy l_yz l_zx l_zy l_zz d_xx d_yy d_zz d_xy d_xz d_yz w_xy w_xz w_yz norm_sigma norm_sigmaDot norm_Oldro norm_Trues norm_F norm_U norm_l norm_d norm_w p q sigma_1 sigma_2 sigma_3 sigma_1_v1 sigma_1_v2 sigma_1_v3 sigma_2_v1 sigma_2_v2 sigma_2_v3 sigma_3_v1 sigma_3_v2 sigma_3_v3 sigmaDot_1 sigmaDot_2 sigmaDot_3 sigmaDot_1_v1 sigmaDot_1_v2 sigmaDot_1_v3 sigmaDot_2_v1 sigmaDot_2_v2 sigmaDot_2_v3 sigmaDot_3_v1 sigmaDot_3_v2 sigmaDot_3_v3 d_1 d_2 d_3 d_1_v1 d_1_v2 d_1_v3 d_2_v1 d_2_v2 d_2_v3 d_3_v1 d_3_v2 d_3_v3
ZONE T="stress" N=8, E=1, DATAPACKING=BLOCK, VARLOCATION=([4,5,6,7,8,9,10,11,12,13,14,15,16,17,18,19,20,21,22,23,24,25,26,27,28,29,30,31,32,33,34,35,36,37,38,39,40,41,42,43,44,45,46,47,48,49,50,51,52,53,54,55,56,57,58,59,60,61,62,63,64,65,66,67,68,69,70,71,72,73,74,75,76,77,78,79,80,81,82,83,84,85,86,87,88,89,90,91,92,93,94,95,96,97,98,99,100,101,102,103,104,105,106,107,108,109,110,111,112,113,114,115,116,117,118,119,120,121,122,123,124,125,126,127,128,129,130,131,132,133,134,135,136,137,138,139,140,141,142,143,144,145,146]=CELLCENTERED), ZONETYPE=FEBRICK, STRANDID=4, SOLUTIONTIME=1
   1.759734e-05   1.759734e-05   1.759734e-05   1.759734e-05   1.990379e-02   1.990379e-02   1.990379e-02   1.990379e-02
   3.046693e-05   3.046693e-05   1.995567e-02   1.995567e-02   3.046693e-05   3.046693e-05   1.995567e-02   1.995567e-02
   1.127518e-05   1.827512e-02   1.127518e-05   1.827512e-02   1.127518e-05   1.827512e-02   1.127518e-05   1.827512e-02
   1.527619e+03
   7.347254e-01
   3.499942e-01
   3.351082e-01
   3.148976e-01
  -4.196185e-03
   2.594368e-03
   9.519744e-03
  -6.923257e+04
  -6.654822e+04
  -6.171357e+04
   7.351954e+03
   4.616884e+03
  -7.010428e+03
  -6.495881e+05
   3.430556e+05
   2.949987e+06
  -1.994444e+06
  -2.493768e+06
   9.879560e+05
  -6.501886e+05
  -3.984489e+06
  -5.317380e+06
  -4.572399e+03
   3.435543e+05
   2.901264e+06
   3.244218e+05
  -9.253163e+05
   2.949603e+06
  -6.497457e+05
  -3.984536e+06
  -5.317410e+06
  -4.619398e+03
   3.439800e+05
   2.901309e+06
   3.243922e+05
  -9.252715e+05
   2.949997e+06
   1.000043e+00
  -4.431733e-05
   6.947399e-04
   2.213748e-04
   1.000026e+00
  -3.477937e-04
  -2.293054e-04
  -2.823904e-05
   1.000156e+00
   9.999999e-01
  -1.327797e-04
   4.619818e-04
   1.328535e-04
   1.000000e+00
  -1.597680e-04
  -4.619606e-04
   1.598294e-04
   9.999999e-01
   1.000043e+00
   1.000026e+00
   1.000156e+00
   8.855272e-05
   2.326611e-04
  -1.880317e-04
   4.343774e-05
   2.622743e-05
   1.558501e-04
   8.853393e-05
   2.326760e-04
  -1.880385e-04
   7.517176e-05
   3.693068e-04
   4.350148e-05
   2.622328e-05
   1.553476e-04
   8.848734e-05
   2.327075e-04
  -1.880420e-04
   7.502412e-05
   3.692445e-04
  -1.639707e-03
   6.967738e-03
   2.933949e-02
  -1.173422e-02
   4.171095e-03
  -1.632867e-02
  -6.589884e-02
   7.814329e-03
  -8.927504e-03
  -1.639707e-03
   4.171095e-03
  -8.927504e-03
  -2.383239e-03
  -1.827967e-02
  -4.257171e-03
   9.350977e-03
   4.761917e-02
  -1.207150e-02
   1.152363e+05
   7.921095e+06
   7.922779e+06
   7.922961e+06
   1.732181e+00
   1.732181e+00
   7.627044e-02
   2.856023e-02
   7.072124e-02
  -6.583145e+04
   2.041603e+04
  -7.913642e+04
  -6.166320e+04
  -5.669473e+04
   6.591089e-01
  -6.207517e-01
  -4.245502e-01
   7.491754e-01
   4.926704e-01
   4.427325e-01
   6.566359e-02
   6.098715e-01
  -7.897753e-01
  -6.868198e+05
   6.021483e+04
   3.270059e+06
   9.886512e-01
  -9.799895e-02
  -1.138643e-01
  -1.273663e-01
  -9.487067e-01
  -2.893672e-01
   7.966614e-02
  -3.005857e-01
   9.504218e-01
  -2.472186e-02
   4.885051e-03
   1.344070e-02
   6.227760e-01
   1.640871e-01
   7.650003e-01
  -1.806003e-01
   9.815045e-01
  -6.350150e-02
  -7.612710e-01
  -9.861209e-02
   6.408917e-01
       5       7       3       1       6       8       4       2
