     VARIABLES=
              x              y              z      nomin_den    nomin_voidr      fabric_xx      fabric_yy      fabric_zz      fabric_xy      fabric_xz      fabric_yz       sigma_xx       sigma_yy       sigma_zz       sigma_xy       sigma_xz       sigma_yz    sigmaDot_xx    sigmaDot_yy    sigmaDot_zz    sigmaDot_xy    sigmaDot_xz    sigmaDot_yz       Oldro_xx       Oldro_xy       Oldro_xz       Oldro_yx       Oldro_yy       Oldro_yz       Oldro_zx       Oldro_zy       Oldro_zz       Trues_xx       Trues_xy       Trues_xz       Trues_yx       Trues_yy       Trues_yz       Trues_zx       Trues_zy       Trues_zz           F_xX           F_xY           F_xZ           F_yX           F_yY           F_yZ           F_zX           F_zY           F_zZ           R_xX           R_xY           R_xZ           R_yX           R_yY           R_yZ           R_zX           R_zY           R_zZ           U_xX           U_yY           U_zZ           U_xY           U_xZ           U_yZ       Green_xx       Green_yy       Green_zz       Green_xy       Green_xz       Green_yz      Green_vol      Green_shr       Euler_xx       Euler_yy       Euler_zz       Euler_xy       Euler_xz       Euler_yz      Euler_vol      Euler_shr           l_xx           l_xy           l_xz           l_yx           l_yy           l_yz           l_zx           l_zy           l_zz           d_xx           d_yy           d_zz           d_xy           d_xz           d_yz           w_xy           w_xz           w_yz     norm_sigma  norm_sigmaDot     norm_Oldro     norm_Trues         norm_F         norm_U         norm_l         norm_d         norm_w              p              q        sigma_1        sigma_2        sigma_3     sigma_1_v1     sigma_1_v2     sigma_1_v3     sigma_2_v1     sigma_2_v2     sigma_2_v3     sigma_3_v1     sigma_3_v2     sigma_3_v3     sigmaDot_1     sigmaDot_2     sigmaDot_3  sigmaDot_1_v1  sigmaDot_1_v2  sigmaDot_1_v3  sigmaDot_2_v1  sigmaDot_2_v2  sigmaDot_2_v3  sigmaDot_3_v1  sigmaDot_3_v2  sigmaDot_3_v3            d_1            d_2            d_3         d_1_v1         d_1_v2         d_1_v3         d_2_v1         d_2_v2         d_2_v3         d_3_v1         d_3_v2         d_3_v3
ZONE I=2, J=2, K=2, DATAPACKING=POINT, STRANDID=5, SOLUTIONTIME=3
   5.000000e-03   5.000000e-03   4.998928e-03   1.607674e+03   6.483437e-01   2.680370e-01   1.761818e-01   1.921449e-01  -3.458635e-03   1.788275e-02   2.998649e-02  -6.237280e-05  -2.188512e-03  -2.212423e-04   7.978792e-04   1.619954e-04  -3.338924e-04   1.537317e-01  -1.278368e+00  -1.453401e-01   3.286437e-01   7.210280e-01  -2.548131e-01   1.537072e-01  -2.502664e-02   9.129915e-01   6.823383e-01  -1.278295e+00  -4.982766e-01   5.290177e-01  -1.118978e-02  -1.453000e-01   1.537023e-01  -2.500039e-02   9.129717e-01   6.824375e-01  -1.278467e+00  -4.983228e-01   5.290630e-01  -1.119609e-02  -1.453173e-01   1.000773e+00   7.443890e-04   1.669299e-03  -4.591863e-04   1.000948e+00   1.233926e-03   7.957573e-04   2.331974e-03   1.004523e+00   9.999997e-01   6.006647e-04   4.349576e-04  -6.004266e-04   9.999997e-01  -5.473186e-04  -4.352862e-04   5.470573e-04   9.999998e-01   1.000772e+00   1.000949e+00   1.004523e+00   1.423781e-04   1.231302e-03   1.784460e-03   7.734259e-04   9.510633e-04   4.535405e-03   1.435992e-04   1.234689e-03   1.789430e-03   2.086631e-03   3.512339e-03   7.704113e-04   9.407947e-04   4.486241e-03   1.389476e-04   1.223971e-03   1.766927e-03   2.065816e-03   3.471895e-03   1.054296e-02   1.145976e-02   2.320394e-02  -6.877365e-03   1.196972e-02   1.441575e-02   9.959171e-03   2.779682e-02   5.608438e-02   1.054296e-02   1.196972e-02   5.608438e-02   2.291195e-03   1.658156e-02   2.110628e-02   9.168560e-03   6.622386e-03  -6.690535e-03   2.700753e-03   1.872735e+00   1.872646e+00   1.872816e+00   1.735661e+00   1.735661e+00   7.208742e-02   6.965079e-02   1.858396e-02  -8.240422e-04   3.162461e-03  -2.814938e-03  -4.294012e-04   7.722127e-04  -4.348748e-01   8.918733e-01   1.242813e-01   3.605410e-01   2.989199e-01  -8.835480e-01  -8.251631e-01  -3.394243e-01  -4.515496e-01  -1.583868e+00  -3.963899e-01   7.102816e-01   4.015860e-01  -9.026493e-01  -1.547671e-01  -4.105924e-01  -3.285114e-01   8.505846e-01  -8.186224e-01  -2.780367e-01  -5.025465e-01   6.520668e-04   8.863571e-03   6.908143e-02   5.689446e-01   6.974434e-01  -4.357463e-01  -7.773499e-01   6.290152e-01  -8.184970e-03   2.683825e-01   3.433841e-01   9.000323e-01
   5.000000e-03   5.000000e-03   1.499678e-02   1.107830e+03   1.392063e+00   1.456443e-01   3.377095e-01   5.510778e-02   6.127456e-02  -1.858960e-03  -2.659714e-02  -4.598926e-04  -2.287688e-03   9.219276e-05   1.438364e-04   1.135407e-03   1.137358e-03   2.321721e+02   1.733396e+02  -5.962628e+02  -2.446102e+03  -1.583079e+03  -2.180693e+03   2.321721e+02  -9.477377e+01  -3.160649e+03  -4.797430e+03   1.733398e+02   6.645294e+02  -5.508796e+00  -5.025915e+03  -5.962630e+02   2.321721e+02  -9.477378e+01  -3.160649e+03  -4.797430e+03   1.733398e+02   6.645294e+02  -5.508801e+00  -5.025915e+03  -5.962630e+02   1.000780e+00  -7.377134e-04  -6.100220e-04   1.462883e-04   1.001572e+00  -1.911313e-03   4.399489e-03   2.734074e-03   9.999112e-01   9.999968e-01  -4.460686e-04  -2.503613e-03   4.402546e-04   9.999972e-01  -2.322303e-03   2.504642e-03   2.321193e-03   9.999942e-01   1.000788e+00   1.001576e+00   9.999113e-01  -2.899165e-04   1.893558e-03   4.099519e-04   7.898127e-04   1.577092e-03  -8.678712e-05  -2.898709e-04   1.894161e-03   4.099822e-04   7.600393e-04   2.458385e-03   7.720258e-04   1.569459e-03  -8.291601e-05  -2.958312e-04   1.893071e-03   4.138207e-04   7.528562e-04   2.456378e-03   6.268497e-03  -1.004792e-02   3.506889e-03   2.911848e-03   1.993510e-02  -3.333424e-02   5.830831e-02   3.621777e-02  -4.412374e-03   6.268497e-03   1.993510e-02  -4.412374e-03  -3.568035e-03   3.090760e-02   1.441767e-03  -6.479883e-03  -2.740071e-02  -3.477601e-02   3.848804e-03   7.691226e+03   7.691226e+03   7.691226e+03   1.733367e+00   1.733367e+00   8.000417e-02   4.895253e-02   6.327967e-02  -8.851293e-04   3.351089e-03  -3.037665e-03  -3.267514e-04   7.090282e-04  -2.216941e-01   8.882597e-01  -4.023013e-01  -9.750690e-01  -1.978749e-01   1.004290e-01  -9.601717e-03  -4.145361e-01  -9.099822e-01  -6.980251e+03  -1.561174e+02   6.945617e+03   4.634168e-01   6.960679e-01   5.483925e-01  -7.240228e-01  -5.938934e-02   6.872146e-01   5.109167e-01  -7.155155e-01   4.764470e-01  -3.066635e-02   1.990318e-02   3.255439e-02   6.441169e-01   6.712898e-02  -7.619758e-01  -6.679897e-02  -9.873999e-01  -1.434553e-01  -7.620048e-01   1.433012e-01  -6.315168e-01
   5.000000e-03   1.500000e-02   4.998928e-03   1.602569e+03   6.535949e-01   1.240567e-01   2.316850e-01   2.442584e-01   1.661997e-02  -2.059386e-02  -8.811120e-03  -8.062931e-04  -5.110127e-04  -3.179395e-04   8.432958e-05  -3.992831e-05   1.447393e-04   3.857470e+01   2.264779e+01  -5.683751e+00   6.175122e+01   1.142113e+01   1.066375e+02   3.857470e+01  -6.473041e+00  -1.085875e+01   1.299755e+02   2.264780e+01  -7.284595e+00   3.370104e+01   2.205596e+02  -5.683716e+00   3.857466e+01  -6.473036e+00  -1.085875e+01   1.299755e+02   2.264777e+01  -7.284585e+00   3.370104e+01   2.205596e+02  -5.683732e+00   1.000395e+00  -1.320906e-04   4.434207e-04   4.294050e-05   1.000407e+00   3.197961e-04   1.672836e-03  -1.782515e-03   1.003449e+00   9.999998e-01  -8.682805e-05  -6.135823e-04   8.747170e-05   9.999994e-01   1.049046e-03   6.134909e-04  -1.049099e-03   9.999993e-01   1.000396e+00   1.000408e+00   1.003448e+00  -4.567685e-05   1.059055e-03  -7.329602e-04   3.965326e-04   4.086172e-04   3.455166e-03  -4.608334e-05   1.061108e-03  -7.343978e-04   1.420105e-03   2.522843e-03   3.926981e-04   4.056769e-04   3.430988e-03  -4.291554e-05   1.051177e-03  -7.254336e-04   1.409788e-03   2.502545e-03   3.913739e-03  -1.301031e-03   8.659035e-03  -8.750169e-04   4.360329e-03   4.898408e-03   1.908229e-02  -2.837865e-02   3.960362e-02   3.913739e-03   4.360329e-03   3.960362e-02  -1.088024e-03   1.387066e-02  -1.174012e-02  -2.130071e-04  -5.211626e-03   1.663853e-02   1.041362e-03   2.625300e+02   2.625300e+02   2.625300e+02   1.734509e+00   1.734509e+00   5.360680e-02   4.759827e-02   2.465956e-02  -5.450818e-04   4.563038e-04  -8.190495e-04  -5.225996e-04  -2.935962e-04   9.785672e-01  -1.854942e-01   8.943250e-02   2.039561e-01   9.329806e-01  -2.965622e-01   2.842821e-02  -3.084464e-01  -9.508168e-01  -2.299027e+02  -1.832735e+00   2.872742e+02  -2.601057e-01   7.076204e-01  -6.569767e-01  -8.597715e-01   1.399464e-01   4.911292e-01   4.394746e-01   6.925954e-01   5.719910e-01  -2.666759e-03   3.123711e-03   4.742074e-02  -7.409005e-01   5.437926e-01   3.941524e-01   6.012283e-01   7.985726e-01   2.839654e-02   2.993174e-01  -2.580146e-01   9.186063e-01
   5.000000e-03   1.500000e-02   1.499678e-02   1.156908e+03   1.290589e+00   2.590520e-01   2.461503e-01   9.479774e-02   8.238311e-03   2.514852e-02  -3.892265e-02  -1.916971e-04  -2.409092e-03  -4.155576e-04   1.102363e-05   4.471036e-04   8.550269e-07  -7.274953e-02   7.220418e+00  -7.028790e-01   5.712330e+00  -4.410285e+00  -5.758776e+00  -7.273296e-02   2.217823e+00  -8.523230e+00   9.206825e+00   7.220362e+00  -3.329712e+00  -2.973936e-01  -8.188183e+00  -7.028766e-01  -7.274420e-02   2.217842e+00  -8.523188e+00   9.206808e+00   7.220221e+00  -3.329731e+00  -2.973831e-01  -8.188164e+00  -7.029010e-01   1.000535e+00   3.474372e-04  -1.488857e-03   5.420473e-04   9.991545e-01   1.968976e-03   4.053998e-03  -5.332723e-03   1.004811e+00   9.999962e-01  -9.226945e-05  -2.765078e-03   1.023452e-04   9.999934e-01   3.644004e-03   2.764724e-03  -3.644273e-03   9.999895e-01   1.000542e+00   9.991672e-01   1.004812e+00   4.349510e-04   1.289374e-03  -1.692705e-03   5.431325e-04  -8.308876e-04   4.825431e-03   4.337965e-04   1.292458e-03  -1.695792e-03   1.512559e-03   4.232834e-03   5.317285e-04  -8.504751e-04   4.789608e-03   4.477996e-04   1.267008e-03  -1.661675e-03   1.490287e-03   4.196627e-03   8.309927e-03   1.999756e-03  -1.501738e-02   6.702525e-03  -1.148063e-02   2.665520e-02   5.493340e-02  -7.437599e-02   6.178694e-02   8.309927e-03  -1.148063e-02   6.178694e-02   4.351141e-03   1.995801e-02  -2.386040e-02  -2.351384e-03  -3.497539e-02   5.051560e-02   2.636204e-03   1.712252e+01   1.712263e+01   1.712254e+01   1.734669e+00   1.734669e+00   1.164169e-01   7.740563e-02   8.695553e-02  -1.005449e-03   2.266530e-03  -2.503912e-03  -4.245713e-04  -8.786336e-05  -1.351887e-01  -9.771434e-01   1.640572e-01  -4.209989e-01   2.065359e-01   8.832343e-01  -8.969303e-01   5.033537e-02  -4.392976e-01  -9.270404e+00  -7.157354e-01   1.643093e+01   5.810947e-01  -5.983331e-01  -5.516580e-01  -6.755456e-01   2.337669e-02  -7.369476e-01   4.538360e-01   8.009064e-01  -3.906172e-01  -2.216645e-02   6.944675e-03   7.383801e-02  -3.424712e-01   8.791827e-01   3.312873e-01  -9.007011e-01  -4.075507e-01   1.504656e-01   2.673032e-01  -2.468607e-01   9.314552e-01
   1.500000e-02   5.000000e-03   4.998928e-03   1.626769e+03   6.289956e-01   1.845477e-01   2.266529e-01   2.251630e-01   1.574288e-02   4.812521e-02  -2.894479e-02   2.721551e-05   3.650364e-05   6.750645e-05  -1.283944e-05  -1.374983e-05   3.997638e-05   2.554413e+01   1.367563e+02   1.636776e+01  -8.823776e+01  -2.205909e+01  -3.196721e+01   2.554413e+01  -1.799912e+01  -6.293013e+01  -1.584764e+02   1.367563e+02  -2.510816e+01   1.881194e+01  -3.882626e+01   1.636775e+01   2.554413e+01  -1.799912e+01  -6.293013e+01  -1.584764e+02   1.367563e+02  -2.510816e+01   1.881194e+01  -3.882626e+01   1.636775e+01   9.989841e-01  -3.288867e-04   2.260259e-04   7.238709e-04   9.997345e-01  -4.179154e-04  -2.213265e-03   1.540397e-03   1.004279e+00   9.999991e-01  -5.259768e-04   1.218158e-03   5.271668e-04   9.999994e-01  -9.767319e-04  -1.217644e-03   9.773732e-04   9.999988e-01   9.989863e-01   9.997355e-01   1.004279e+00   1.962648e-04  -9.970487e-04   5.635215e-04  -1.012646e-03  -2.642626e-04   4.288389e-03   1.958584e-04  -9.986211e-04   5.645547e-04   1.003827e-03   3.575026e-03  -1.019383e-03  -2.659944e-04   4.252828e-03   1.987312e-04  -9.860464e-04   5.552665e-04   9.891503e-04   3.549778e-03   1.336031e-03  -4.506869e-03   3.469109e-03   4.570302e-03  -4.710285e-03  -5.350446e-03  -3.556291e-02   2.075078e-02   5.686957e-02   1.336031e-03  -4.710285e-03   5.686957e-02   3.171626e-05  -1.604690e-02   7.700167e-03  -4.538585e-03   1.951601e-02  -1.305061e-02   1.093521e-04   2.269657e+02   2.269657e+02   2.269657e+02   1.733789e+00   1.733789e+00   7.095982e-02   6.238359e-02   3.381691e-02   4.374187e-05   7.527957e-05  -8.601303e-07   4.611798e-05   8.596775e-05  -7.118574e-01  -6.816675e-01   1.690811e-01  -6.084531e-01   4.783336e-01  -6.332312e-01  -3.507760e-01   5.536483e-01   7.552680e-01  -8.731246e+01   9.340318e+00   2.566403e+02   8.083762e-01   5.842328e-01   7.211069e-02   1.600227e-01  -1.002080e-01  -9.820138e-01   5.664986e-01  -8.053759e-01   1.744963e-01  -6.640681e-03  -1.865097e-03   6.200109e-02   4.394603e-01  -8.717247e-01   2.167272e-01  -8.615749e-01  -4.773087e-01  -1.728153e-01   2.540932e-01  -1.107813e-01  -9.608143e-01
   1.500000e-02   5.000000e-03   1.499678e-02   1.280376e+03   1.069704e+00   5.267033e-01   2.114952e-01   3.957935e-02   7.115161e-02   4.361848e-02  -2.403589e-03  -5.974427e-03  -1.152524e-03  -2.375813e-03  -2.921478e-03  -4.674371e-03  -2.622504e-03   2.655232e+01   2.646838e+00   9.284903e+00   9.765063e+00   1.331969e+01   9.142251e-01   2.655270e+01   9.727031e+00   1.042660e+01   9.803207e+00   2.646793e+00   3.100338e+00   1.621250e+01  -1.272221e+00   9.284484e+00   2.655250e+01   9.726931e+00   1.042640e+01   9.803117e+00   2.646755e+00   3.100289e+00   1.621240e+01  -1.272341e+00   9.284407e+00   1.000005e+00  -3.173535e-04   3.316846e-03  -1.231294e-03   1.000415e+00   7.947121e-04  -6.163113e-03   2.861112e-03   1.002346e+00   9.999887e-01   4.557153e-04   4.733313e-03  -4.508385e-04   9.999994e-01  -1.031328e-03  -4.733780e-03   1.029183e-03   9.999883e-01   1.000023e+00   1.000417e+00   1.002349e+00  -7.819191e-04  -1.428434e-03   1.827820e-03   2.477571e-05   4.187939e-04   2.354333e-03  -7.833967e-04  -1.430843e-03   1.830906e-03   9.326342e-04   3.176575e-03   5.386222e-06   4.075229e-04   2.349776e-03  -7.672582e-04  -1.410195e-03   1.820922e-03   9.208949e-04   3.154847e-03  -4.155132e-04  -1.965952e-03   4.182333e-02  -1.687106e-02   2.512889e-03   9.142770e-03  -8.268807e-02   4.005238e-02   3.025645e-02  -4.155132e-04   2.512889e-03   3.025645e-02  -9.418505e-03  -2.043237e-02   2.459757e-02   7.452553e-03   6.225570e-02  -1.545480e-02   1.115195e-02   3.703722e+01   3.703729e+01   3.703698e+01   1.733665e+00   1.733665e+00   1.071668e-01   5.607496e-02   9.132539e-02  -3.167588e-03   1.062808e-02  -9.943853e-03  -1.572134e-03   2.013223e-03  -7.251955e-01  -4.486878e-01  -5.222745e-01  -6.884488e-01   4.599627e-01   5.607785e-01   1.138767e-02  -7.662333e-01   6.424615e-01  -5.808258e+00   6.259911e+00   3.803241e+01  -4.879989e-01   6.529549e-01   5.792296e-01   1.808993e-01   7.248628e-01  -6.647176e-01   8.538926e-01   2.195993e-01   4.718513e-01  -1.305228e-02  -8.467304e-03   5.387341e-02   4.744282e-01  -6.503890e-01   5.932218e-01  -7.932251e-01  -6.080719e-01  -3.228967e-02   3.817223e-01  -4.552393e-01  -8.043913e-01
   1.500000e-02   1.500000e-02   4.998928e-03   1.566159e+03   6.920373e-01   3.235464e-01   1.914863e-01   2.218093e-01   3.800622e-02   2.350122e-02   3.104382e-02  -6.173001e-04  -1.101455e-03   2.988027e-05  -2.648662e-04   6.732211e-05   1.599349e-05   4.978051e-01   1.217122e+02   3.674091e+01  -5.903459e+01  -6.530430e+01  -2.289700e+01   4.978091e-01  -4.559890e+01  -1.342257e+02  -7.247027e+01   1.217122e+02  -6.963188e+01   3.617070e+00   2.383781e+01   3.674091e+01   4.977701e-01  -4.559890e+01  -1.342257e+02  -7.247030e+01   1.217121e+02  -6.963188e+01   3.617066e+00   2.383782e+01   3.674092e+01   1.000048e+00   1.829621e-04   3.687319e-04   3.046015e-04   1.000549e+00  -3.522214e-04  -1.248503e-03  -1.973751e-03   1.004363e+00   9.999997e-01  -6.083659e-05   8.066794e-04   6.018421e-05   9.999997e-01   8.087179e-04  -8.067283e-04  -8.086690e-04   9.999993e-01   1.000049e+00   1.000550e+00   1.004362e+00   2.447715e-04  -4.415372e-04  -1.164441e-03   4.906277e-05   5.506864e-04   4.372285e-03   2.451019e-04  -4.426535e-04  -1.167354e-03   1.657345e-03   3.100498e-03   4.781681e-05   5.454282e-04   4.333895e-03   2.424721e-04  -4.348799e-04  -1.152915e-03   1.642380e-03   3.070770e-03   1.949650e-03   3.331187e-03   1.216461e-03   2.536517e-03   6.438107e-03  -5.820532e-03  -1.549493e-02  -2.566224e-02   5.472082e-02   1.949650e-03   6.438107e-03   5.472082e-02   2.933852e-03  -7.139234e-03  -1.574139e-02   3.973353e-04   8.355695e-03   9.920854e-03   1.369435e-03   2.166602e+02   2.166603e+02   2.166602e+02   1.734919e+00   1.734919e+00   6.317555e-02   6.045124e-02   1.835205e-02  -5.629583e-04   1.296352e-03  -1.398047e-03  -3.381474e-04   4.731972e-05   5.243485e-01   8.514886e-01  -5.078308e-03   8.326222e-01  -5.114632e-01   2.124751e-01  -1.783228e-01   1.156393e-01   9.771533e-01  -3.590186e+01   3.595367e+01   1.588991e+02  -8.816868e-01  -4.335529e-01   1.861728e-01   2.380760e-01  -6.812117e-02   9.688546e-01   4.073675e-01  -8.985496e-01  -1.632801e-01   4.766628e-04   2.223451e-03   6.040846e-02  -8.496912e-01   5.257054e-01   4.072674e-02  -5.109363e-01  -8.018114e-01  -3.099073e-01   1.302648e-01   2.841343e-01  -9.498941e-01
   1.500000e-02   1.500000e-02   1.499678e-02   1.109163e+03   1.389190e+00   3.947460e-01   2.867487e-01   6.850532e-02   4.266573e-02   4.191490e-02   6.166748e-02  -1.083182e-02  -4.976111e-03  -1.803926e-03  -2.046794e-03  -2.772235e-03  -2.123040e-03  -1.658749e+02   3.569585e+01  -2.722443e+00  -5.678476e+01  -3.502491e+01   7.536678e+01  -1.658749e+02  -4.630761e+01  -3.906622e+01  -6.726160e+01   3.569587e+01   1.284446e+01  -3.098419e+01   1.378890e+02  -2.722559e+00  -1.658753e+02  -4.630762e+01  -3.906627e+01  -6.726174e+01   3.569569e+01   1.284439e+01  -3.098434e+01   1.378889e+02  -2.722624e+00   9.998249e-01   5.336864e-04   1.105552e-03   4.163326e-04   9.993482e-01   1.849049e-03  -2.956501e-03  -1.391580e-03   1.003914e+00   9.999979e-01   5.608156e-05   2.026887e-03  -5.935930e-05   9.999987e-01   1.617105e-03  -2.026793e-03  -1.617222e-03   9.999966e-01   9.998289e-01   9.993492e-01   1.003916e+00   4.771851e-04  -9.292861e-04   2.255575e-04  -1.705806e-04  -6.504690e-04   3.923701e-03   4.768842e-04  -9.309721e-04   2.257040e-04   1.034217e-03   3.154781e-03  -1.764928e-04  -6.511913e-04   3.894335e-03   4.770349e-04  -9.167716e-04   2.315560e-04   1.022217e-03   3.133641e-03  -3.947929e-03   6.804980e-03   1.262360e-02   5.449659e-03  -1.060600e-02   2.458180e-02  -3.912623e-02  -1.948793e-02   5.093515e-02  -3.947929e-03  -1.060600e-02   5.093515e-02   6.127320e-03  -1.325132e-02   2.546933e-03   6.776606e-04   2.587491e-02   2.203487e-02   1.372232e-02   2.390170e+02   2.390171e+02   2.390173e+02   1.733841e+00   1.733841e+00   7.397791e-02   5.622917e-02   4.807298e-02  -5.870618e-03   1.320990e-02  -1.450224e-02  -3.067613e-03  -4.200512e-05  -8.352661e-01  -4.266745e-01  -3.468132e-01  -4.814613e-01   8.721858e-01   8.652746e-02  -2.655665e-01  -2.392506e-01   9.339345e-01  -1.872963e+02  -1.163849e+02   1.707798e+02  -9.338858e-01  -3.433748e-01   9.975496e-02   2.912620e-01  -5.686688e-01   7.692739e-01   2.074218e-01  -7.474688e-01  -6.310837e-01  -1.559197e-02  -2.013442e-03   5.398663e-02   5.867070e-01  -7.962808e-01   1.473492e-01  -7.790083e-01  -6.046750e-01  -1.658745e-01   2.211810e-01  -1.746651e-02  -9.750763e-01
