     VARIABLES=
              x              y              z      nomin_den    nomin_voidr      fabric_xx      fabric_yy      fabric_zz      fabric_xy      fabric_xz      fabric_yz       sigma_xx       sigma_yy       sigma_zz       sigma_xy       sigma_xz       sigma_yz    sigmaDot_xx    sigmaDot_yy    sigmaDot_zz    sigmaDot_xy    sigmaDot_xz    sigmaDot_yz       Oldro_xx       Oldro_xy       Oldro_xz       Oldro_yx       Oldro_yy       Oldro_yz       Oldro_zx       Oldro_zy       Oldro_zz       Trues_xx       Trues_xy       Trues_xz       Trues_yx       Trues_yy       Trues_yz       Trues_zx       Trues_zy       Trues_zz           F_xX           F_xY           F_xZ           F_yX           F_yY           F_yZ           F_zX           F_zY           F_zZ           R_xX           R_xY           R_xZ           R_yX           R_yY           R_yZ           R_zX           R_zY           R_zZ           U_xX           U_yY           U_zZ           U_xY           U_xZ           U_yZ       Green_xx       Green_yy       Green_zz       Green_xy       Green_xz       Green_yz      Green_vol      Green_shr       Euler_xx       Euler_yy       Euler_zz       Euler_xy       Euler_xz       Euler_yz      Euler_vol      Euler_shr           l_xx           l_xy           l_xz           l_yx           l_yy           l_yz           l_zx           l_zy           l_zz           d_xx           d_yy           d_zz           d_xy           d_xz           d_yz           w_xy           w_xz           w_yz     norm_sigma  norm_sigmaDot     norm_Oldro     norm_Trues         norm_F         norm_U         norm_l         norm_d         norm_w              p              q        sigma_1        sigma_2        sigma_3     sigma_1_v1     sigma_1_v2     sigma_1_v3     sigma_2_v1     sigma_2_v2     sigma_2_v3     sigma_3_v1     sigma_3_v2     sigma_3_v3     sigmaDot_1     sigmaDot_2     sigmaDot_3  sigmaDot_1_v1  sigmaDot_1_v2  sigmaDot_1_v3  sigmaDot_2_v1  sigmaDot_2_v2  sigmaDot_2_v3  sigmaDot_3_v1  sigmaDot_3_v2  sigmaDot_3_v3            d_1            d_2            d_3         d_1_v1         d_1_v2         d_1_v3         d_2_v1         d_2_v2         d_2_v3         d_3_v1         d_3_v2         d_3_v3
ZONE I=2, J=2, K=2, DATAPACKING=POINT, STRANDID=5, SOLUTIONTIME=10
   5.000000e-03   5.000000e-03   5.024874e-03   1.599373e+03   6.568992e-01   3.074424e-01   1.657559e-01   2.540744e-01   7.387993e-03   2.624944e-02   4.828093e-02   1.974576e-05  -2.051118e-05   2.242311e-05   7.303366e-06  -1.235226e-05  -6.306920e-05  -4.208158e-02  -7.173412e-02   1.536589e-02  -4.937999e-01   1.432046e+00   4.383706e-01  -4.208142e-02   3.802450e-01   2.652952e+00  -1.367842e+00  -7.173195e-02   1.575982e-01   2.111413e-01   7.191510e-01   1.536701e-02  -4.208007e-02   3.802450e-01   2.652952e+00  -1.367841e+00  -7.173335e-02   1.575920e-01   2.111388e-01   7.191486e-01   1.536854e-02   1.002257e+00   1.563362e-03   5.163901e-03  -1.722323e-03   1.002964e+00   4.006113e-03   2.965705e-03   6.842808e-03   1.014961e+00   9.999981e-01   1.633543e-03   1.084122e-03  -1.632021e-03   9.999977e-01  -1.403299e-03  -1.086412e-03   1.401527e-03   9.999984e-01   1.002255e+00   1.002974e+00   1.014959e+00  -8.093272e-05   4.054687e-03   5.437034e-03   2.265351e-03   2.992863e-03   1.509415e-02  -7.012156e-05   4.089365e-03   5.485621e-03   6.784122e-03   1.147430e-02   2.231171e-03   2.902842e-03   1.457028e-02  -1.112167e-04   3.974944e-03   5.271998e-03   6.568099e-03   1.106017e-02   5.017668e-03   5.054024e-03   1.734436e-02  -6.733491e-03   8.557945e-03   1.368224e-02   1.469891e-02   2.540561e-02   5.458279e-02   5.017668e-03   8.557945e-03   5.458279e-02  -8.397337e-04   1.602163e-02   1.954392e-02   5.893757e-03   1.322725e-03  -5.861686e-03   1.113372e-04   3.106040e+00   3.106039e+00   3.106038e+00   1.743762e+00   1.743762e+00   6.706797e-02   6.600319e-02   1.190339e-02   7.219230e-06   9.970300e-05  -4.134309e-05  -7.804044e-06   7.080482e-05  -1.356955e-01  -8.311958e-01  -5.391663e-01  -7.894705e-01   4.195141e-01  -4.480449e-01   5.986009e-01   3.648582e-01  -7.131307e-01  -1.687013e+00   1.758663e-01   1.412697e+00  -6.218085e-01  -6.908192e-01   3.689486e-01   4.552076e-01   6.454667e-02   8.880426e-01  -6.372913e-01   7.201407e-01   2.743305e-01  -4.752506e-03   7.508648e-03   6.540226e-02   6.885527e-01   6.128057e-01  -3.877686e-01  -6.844798e-01   7.258181e-01  -6.837827e-02   2.395468e-01   3.125018e-01   9.192170e-01
   5.000000e-03   5.000000e-03   1.507462e-02   1.102110e+03   1.404479e+00   3.944666e-03   1.180688e-01   2.986573e-03  -2.158105e-02   3.432351e-03  -1.877820e-02   1.540685e-04   1.355312e-04   1.762163e-04  -1.737999e-05  -5.695318e-05   8.194053e-05   2.884605e-04   6.107722e-04   1.607998e-04  -4.034560e-05  -1.785889e-05  -6.700883e-05   2.850941e-04  -8.601675e-05   7.374246e-05   5.792584e-06   6.110155e-04  -1.554764e-04  -1.184487e-04   1.754921e-05   1.520058e-04   2.932418e-04  -8.807191e-05   7.530013e-05   6.009526e-06   6.181828e-04  -1.477149e-04  -1.260302e-04   1.845429e-05   1.613247e-04   1.003215e+00  -1.489906e-03  -1.219509e-03  -1.499835e-03   1.005346e+00  -8.780137e-03   1.404014e-02   8.689429e-03   1.004467e+00   9.999711e-01  -5.606450e-05  -7.606497e-03  -1.009443e-05   9.999622e-01  -8.697370e-03   7.606697e-03   8.697195e-03   9.999332e-01   1.003293e+00   1.005384e+00   1.004486e+00  -1.433914e-03   6.421293e-03  -4.368831e-05   3.319810e-03   5.399645e-03   4.516607e-03  -1.440275e-03   6.446299e-03  -4.850770e-05   4.412021e-03   7.721929e-03   3.116236e-03   5.338391e-03   4.490930e-03  -1.470049e-03   6.325133e-03  -3.252156e-05   4.315186e-03   7.609386e-03   9.204726e-03  -4.003379e-03  -3.431812e-03  -7.473589e-03   2.247896e-02  -4.025010e-02   5.140500e-02   4.379950e-02   2.119957e-02   9.204726e-03   2.247896e-02   2.119957e-02  -5.738484e-03   2.398659e-02   1.774701e-03   1.735105e-03  -2.741841e-02  -4.202480e-02   3.434218e-04   7.299479e-04   7.273965e-04   7.386969e-04   1.739676e+00   1.739676e+00   8.546374e-02   4.756391e-02   7.100511e-02   1.552720e-04   2.526487e-04   1.950233e-05   1.368315e-04   3.094822e-04   7.251428e-01  -1.255067e-01   6.770642e-01   1.303373e-01   9.904923e-01   4.401391e-02   6.761509e-01  -5.633033e-02  -7.346066e-01   9.208916e-05   3.564904e-04   6.114529e-04  -5.075603e-01   3.620173e-02  -8.608554e-01  -8.614240e-01  -2.181651e-04   5.078864e-01  -1.819856e-02  -9.993445e-01  -3.129577e-02  -1.048211e-02   2.317194e-02   4.019343e-02   7.813237e-01   1.683858e-01  -6.009822e-01   5.578617e-02  -9.779053e-01  -2.014674e-01  -6.216279e-01   1.238847e-01  -7.734542e-01
   5.000000e-03   1.500000e-02   5.024874e-03   1.576401e+03   6.810448e-01   1.702293e-01   1.397130e-01   2.117968e-01   3.438340e-02   1.696406e-02   2.242486e-02   3.098574e-05   2.633548e-05   3.773149e-05   1.423307e-05  -7.739150e-06  -4.841079e-06   1.491011e-03   4.029182e-04  -2.034432e-02   1.673605e-02  -1.488292e-01   5.388891e-02   1.490825e-03   1.905917e-02  -3.179527e-01   1.441281e-02   4.027404e-04  -9.993669e-03   2.029410e-02   1.177728e-01  -2.034717e-02   1.492274e-03   1.906054e-02  -3.179527e-01   1.441277e-02   4.039722e-04  -9.993904e-03   2.029341e-02   1.177726e-01  -2.034540e-02   1.001635e+00  -3.692213e-04   1.626363e-03   2.602347e-04   1.001153e+00   1.982935e-04   4.906516e-03  -6.774151e-03   1.010864e+00   9.999986e-01  -3.084887e-04  -1.630833e-03   3.141374e-04   9.999939e-01   3.464572e-03   1.629754e-03  -3.465079e-03   9.999927e-01   1.001642e+00   1.001171e+00   1.010854e+00  -6.576136e-05   3.273882e-03  -3.304933e-03   1.648378e-03   1.176778e-03   1.092420e-02  -7.126381e-05   3.294447e-03  -3.324911e-03   4.583117e-03   8.336751e-03   1.611423e-03   1.130071e-03   1.068161e-02  -3.302656e-05   3.199623e-03  -3.212071e-03   4.474369e-03   8.124975e-03   5.478490e-03  -1.072298e-03   7.892736e-03   1.851873e-04   3.521468e-03   1.337545e-03   1.811883e-02  -2.888559e-02   3.777292e-02   5.478490e-03   3.521468e-03   3.777292e-02  -4.435551e-04   1.300578e-02  -1.377402e-02  -6.287424e-04  -5.113045e-03   1.511157e-02   6.483374e-05   3.412671e-01   3.412674e-01   3.412673e-01   1.739971e+00   1.739971e+00   5.193406e-02   4.676911e-02   2.257867e-02   3.168424e-05   2.848574e-05   1.774183e-05   2.748915e-05   4.982173e-05  -6.929658e-01  -3.980190e-01  -6.011483e-01   3.919688e-01  -9.077972e-01   1.492137e-01   6.051106e-01   1.322314e-01  -7.850835e-01  -1.284140e-01  -3.584300e-03   1.135479e-01   4.103663e-02   6.716865e-01  -7.396981e-01  -9.763153e-01   1.843518e-01   1.132380e-01   2.124251e-01   7.175317e-01   6.633429e-01  -3.859390e-03   4.213510e-03   4.641876e-02  -5.381737e-01   7.355613e-01   4.114835e-01  -7.905676e-01  -6.098000e-01   5.609601e-02   2.921847e-01  -2.951161e-01   9.096893e-01
   5.000000e-03   1.500000e-02   1.507462e-02   1.168827e+03   1.267230e+00   2.778913e-01   2.474173e-01   4.611992e-02   9.102295e-02   3.132228e-02  -6.329425e-03   7.189791e-05   1.114629e-04   1.474586e-04   2.542958e-05  -4.231868e-05  -1.238508e-04  -4.835410e-05   1.918746e-03   4.976288e-03  -3.961043e-03   2.919431e-03  -2.681427e-03  -5.131294e-05  -4.140569e-03   1.449831e-02  -3.786890e-03   1.923365e-03   3.843216e-04  -8.652266e-03  -5.723459e-03   4.944845e-03  -4.754638e-05  -4.138847e-03   1.449769e-02  -3.785949e-03   1.929204e-03   3.706924e-04  -8.656081e-03  -5.722806e-03   4.952570e-03   1.002526e+00  -4.851360e-03  -6.443409e-03   2.276233e-03   9.967267e-01   4.403807e-03   1.394421e-02  -2.987490e-02   1.012433e+00   9.999422e-01  -3.510620e-03  -1.015858e-02   3.683264e-03   9.998483e-01   1.702633e-02   1.009726e-02  -1.706276e-02   9.998034e-01   1.002617e+00   9.971023e-01   1.012375e+00  -1.481527e-03   3.795990e-03  -1.284915e-02   2.628703e-03  -2.809881e-03   1.254101e-02  -1.505706e-03   3.833962e-03  -1.291285e-02   4.119945e-03   1.804765e-02   2.517638e-03  -3.595720e-03   1.238920e-02  -1.199813e-03   3.655508e-03  -1.240143e-02   3.770372e-03   1.765047e-02   9.624487e-03  -5.226940e-04  -1.892148e-02   1.193454e-02  -1.516887e-02   7.446232e-03   5.482616e-02  -7.669810e-02   5.793204e-02   9.624487e-03  -1.516887e-02   5.793204e-02   5.705922e-03   1.795234e-02  -3.462593e-02  -6.228616e-03  -3.687382e-02   4.207217e-02   3.376731e-04   1.944081e-02   1.943211e-02   1.943487e-02   1.739172e+00   1.739172e+00   1.145580e-01   8.237988e-02   7.960580e-02   1.102731e-04   1.470674e-04   2.229481e-05   1.167860e-04   1.917385e-04  -8.290757e-01   2.378284e-01  -5.060347e-01  -2.120634e-01  -9.711593e-01  -1.089898e-01  -5.173612e-01   1.695070e-02   8.555993e-01  -1.010070e-02   4.801129e-03   1.214625e-02  -6.690338e-01  -4.807094e-01  -5.668442e-01  -5.518328e-01   8.321781e-01  -5.440832e-02  -4.978699e-01  -2.764022e-01   8.220264e-01  -3.252365e-02   9.869663e-03   7.504164e-02  -2.851895e-01   8.748703e-01   3.914958e-01  -9.324822e-01  -3.477281e-01   9.778599e-02   2.216841e-01  -3.371753e-01   9.149694e-01
   1.500000e-02   5.000000e-03   5.024874e-03   1.623671e+03   6.321039e-01   2.069068e-01   2.542829e-01   2.471436e-01   2.583493e-02   3.862397e-02  -3.145952e-02   1.252255e-05   3.214532e-05   4.386803e-05  -1.265857e-05  -4.183907e-06   4.381740e-05  -1.481564e-02   2.827090e-03   1.030876e-02   2.546828e-01   2.710592e-02  -1.314235e-01  -1.481579e-02   1.962853e-03   1.088681e-01   5.074027e-01   2.827858e-03  -6.429592e-02  -5.465413e-02  -1.985574e-01   1.030153e-02  -1.481515e-02   1.963104e-03   1.088672e-01   5.074011e-01   2.829502e-03  -6.429242e-02  -5.465361e-02  -1.985564e-01   1.030378e-02   9.848723e-01  -2.574280e-04   8.964857e-04   1.361423e-03   9.980258e-01  -1.566191e-03  -3.872354e-03   5.104855e-03   1.014952e+00   9.999968e-01  -8.120877e-04   2.387597e-03   8.199959e-04   9.999942e-01  -3.313068e-03  -2.384893e-03   3.315015e-03   9.999917e-01   9.848795e-01   9.980371e-01   1.014951e+00   5.487754e-04  -1.525353e-03   1.797671e-03  -1.500482e-02  -1.959164e-03   1.506535e-02   5.427169e-04  -1.524731e-03   1.808926e-03  -6.328795e-04   1.763575e-02  -1.548253e-02  -1.984479e-03   1.463260e-02   5.653340e-04  -1.455643e-03   1.707037e-03  -9.448015e-04   1.762171e-02   1.850527e-03  -4.190811e-03   4.482653e-04   2.201660e-03  -8.800517e-03  -1.669265e-03  -3.153303e-02   2.123434e-02   5.809925e-02   1.850527e-03  -8.800517e-03   5.809925e-02  -9.945754e-04  -1.554238e-02   9.782539e-03  -3.196235e-03   1.599065e-02  -1.145180e-02   9.774571e-05   5.623096e-01   5.623107e-01   5.623083e-01   1.730954e+00   1.730954e+00   7.019276e-02   6.428765e-02   2.818016e-02   2.951197e-05   7.002380e-05  -1.592654e-05   4.296023e-05   6.150220e-05  -7.415698e-01  -5.920211e-01   3.155712e-01  -5.874869e-01   3.459367e-01  -7.315647e-01  -3.239341e-01   7.279003e-01   6.043408e-01  -5.330771e-01  -2.985972e-02   5.612570e-01  -6.761707e-01   7.113122e-01   1.919068e-01  -3.579428e-01  -8.950186e-02  -9.294441e-01   6.439489e-01   6.971545e-01  -3.151276e-01  -1.037107e-02  -1.896898e-03   6.341723e-02   1.375950e-01  -9.756805e-01   1.706314e-01  -9.598103e-01  -1.738827e-01  -2.202929e-01   2.446054e-01  -1.334626e-01  -9.603936e-01
   1.500000e-02   5.000000e-03   1.507462e-02   1.273765e+03   1.080446e+00   4.170032e-01   2.141537e-01   1.188431e-01   1.241219e-01   5.005974e-02   7.836069e-02  -4.179992e-04  -1.589370e-04  -1.750259e-04  -3.092640e-04  -5.635900e-05  -2.424558e-04  -4.189709e+01  -8.209874e+00  -2.897437e+01   1.111708e+01   2.220157e+02   1.056517e+02  -4.189709e+01  -5.244017e+01   4.666936e+02   7.467433e+01  -8.209874e+00  -9.809408e+00  -2.266227e+01   2.211129e+02  -2.897435e+01  -4.189710e+01  -5.244019e+01   4.666936e+02   7.467433e+01  -8.209880e+00  -9.809413e+00  -2.266227e+01   2.211128e+02  -2.897436e+01   9.998877e-01  -6.780675e-04   1.009444e-02  -3.641982e-03   1.001270e+00   3.393397e-03  -2.010331e-02   9.292033e-03   1.009283e+00   9.998861e-01   1.462562e-03   1.501838e-02  -1.418686e-03   9.999947e-01  -2.931760e-03  -1.502259e-02   2.910120e-03   9.998829e-01   1.000081e+00   1.001291e+00   1.009307e+00  -2.238068e-03  -5.073579e-03   6.345278e-03   9.639743e-05   1.314198e-03   9.383296e-03  -2.255700e-03  -5.104495e-03   6.384579e-03   3.597964e-03   1.139475e-02  -1.180653e-04   1.191275e-03   9.266459e-03  -2.076320e-03  -4.841506e-03   6.245565e-03   3.446556e-03   1.111098e-02  -2.736701e-03  -2.920009e-03   2.888677e-02  -1.139539e-02   3.799182e-03   1.269983e-02  -7.835016e-02   3.791906e-02   3.914958e-02  -2.736701e-03   3.799182e-03   3.914958e-02  -7.157701e-03  -2.473169e-02   2.530944e-02   4.237692e-03   5.361846e-02  -1.260962e-02   7.907494e-04   5.275340e+02   5.275340e+02   5.275340e+02   1.738271e+00   1.738271e+00   1.013180e-01   6.450990e-02   7.812682e-02  -2.506540e-04   7.495173e-04  -5.957752e-04  -3.910267e-04   2.348399e-04   5.570620e-01   6.556671e-01   5.096886e-01  -7.945183e-01   2.421408e-01   5.568738e-01   2.417074e-01  -7.151702e-01   6.558270e-01  -2.612993e+02  -2.667198e+01   2.088900e+02   2.996880e-01  -6.763069e-01   6.729013e-01   9.409377e-01   9.304856e-02  -3.255431e-01  -1.575545e-01  -7.307195e-01  -6.642481e-01  -1.598558e-02  -6.010577e-03   6.220821e-02  -7.597887e-01   3.903068e-01  -5.199824e-01  -5.388136e-01  -8.255828e-01   1.676095e-01   3.638694e-01  -4.075214e-01  -8.375711e-01
   1.500000e-02   1.500000e-02   5.024874e-03   1.552771e+03   7.066269e-01   2.096492e-01   1.028660e-01   2.430403e-01  -1.228809e-02   4.171156e-02   2.773013e-02  -1.289596e-04   1.534173e-05   2.649408e-05  -5.412022e-05  -9.184014e-06   2.151343e-05   1.623635e-01  -1.196026e-01  -4.462559e-02   9.639507e-02   6.149150e-02   1.024509e-01   1.623632e-01   2.228960e-02   8.382450e-02   1.705018e-01  -1.196017e-01   4.519743e-02   3.915412e-02   1.597019e-01  -4.462769e-02   1.623566e-01   2.228404e-02   8.382224e-02   1.705018e-01  -1.196009e-01   4.519832e-02   3.915544e-02   1.597032e-01  -4.462633e-02   9.995999e-01   1.815264e-03   2.965709e-04   2.039444e-03   1.000845e+00  -1.293931e-03  -2.318375e-03  -6.147847e-03   1.014545e+00   9.999992e-01  -1.124304e-04   1.295644e-03   1.093111e-04   9.999971e-01   2.407304e-03  -1.295911e-03  -2.407161e-03   9.999963e-01   9.996023e-01   1.000857e+00   1.014539e+00   1.932633e-03  -1.018331e-03  -3.736134e-03  -3.952051e-04   8.658240e-04   1.465184e-02   1.934979e-03  -1.029142e-03  -3.765877e-03   5.040819e-03   1.087268e-02  -4.079724e-04   8.123843e-04   1.422607e-02   1.918579e-03  -9.718375e-04  -3.619099e-03   4.876827e-03   1.056105e-02  -4.386154e-03   8.008512e-03   2.965729e-04   7.022529e-03   2.036268e-03  -3.490448e-03  -1.009010e-02  -2.152278e-02   5.351022e-02  -4.386154e-03   2.036268e-03   5.351022e-02   7.515521e-03  -4.896761e-03  -1.250661e-02   4.929915e-04   5.193334e-03   9.016166e-03   1.815417e-04   3.291410e-01   3.291395e-01   3.291357e-01   1.740760e+00   1.740760e+00   5.981214e-02   5.796966e-02   1.473126e-02  -2.904126e-05   1.629526e-04  -1.332358e-04  -3.567464e-06   4.967947e-05   9.861858e-01   2.564510e-02  -1.636455e-01   1.180912e-01  -8.016346e-01   5.860346e-01  -1.161550e-01  -5.972641e-01  -7.935891e-01  -2.770033e-01  -4.372887e-03   2.795115e-01  -2.701268e-01   8.141410e-01  -5.140097e-01  -5.192462e-01   3.263875e-01   7.898446e-01   8.108112e-01   4.802558e-01   3.345736e-01  -9.497377e-03   3.583737e-03   5.707397e-02   8.092497e-01  -5.850478e-01  -5.323587e-02   5.778918e-01   7.764945e-01   2.511917e-01   1.056218e-01   2.340414e-01  -9.664723e-01
   1.500000e-02   1.500000e-02   1.507462e-02   1.103435e+03   1.401591e+00   1.556789e-01   1.004240e-01   1.285125e-01   2.136217e-02  -6.551645e-02   4.020137e-02   4.686157e-05   6.413792e-05  -2.170058e-04   3.148882e-05  -8.024484e-05  -1.068667e-04  -1.715432e+01   6.928769e+00   2.639472e+01  -5.301782e+00  -2.235738e+02  -5.059908e+01  -1.715432e+01   7.919987e+01  -4.564305e+02  -8.980343e+01   6.928777e+00  -8.570271e+00   9.282816e+00  -9.262786e+01   2.639474e+01  -1.715432e+01   7.919987e+01  -4.564305e+02  -8.980342e+01   6.928779e+00  -8.570270e+00   9.282817e+00  -9.262787e+01   2.639473e+01   9.999818e-01   1.573131e-03   2.589712e-03   1.228491e-03   9.981469e-01   6.498105e-03  -9.404554e-03  -4.525219e-03   1.012822e+00   9.999823e-01   1.438884e-04   5.955338e-03  -1.765039e-04   9.999850e-01   5.476523e-03  -5.954461e-03  -5.477477e-03   9.999673e-01   1.000020e+00   9.981569e-01   1.012840e+00   1.423871e-03  -3.442288e-03   9.506722e-04   2.675211e-05  -1.839907e-03   1.292833e-02   1.420937e-03  -3.463744e-03   9.534485e-04   3.705058e-03   1.030199e-02  -4.011479e-05  -1.842336e-03   1.260703e-02   1.419863e-03  -3.311653e-03   1.013668e-03   3.574860e-03   1.006695e-02  -4.830849e-03   2.265042e-03   6.463008e-04   3.306489e-03  -1.175393e-02   3.312926e-02  -3.908978e-02  -1.538114e-02   5.119933e-02  -4.830849e-03  -1.175393e-02   5.119933e-02   2.785766e-03  -1.922174e-02   8.874063e-03  -5.207238e-04   1.986804e-02   2.425520e-02   3.883492e-04   4.821251e+02   4.821251e+02   4.821251e+02   1.738456e+00   1.738456e+00   7.524282e-02   6.078513e-02   4.434692e-02  -3.533545e-05   4.981499e-04  -3.563229e-04   5.138122e-05   1.989353e-04   1.177242e-01  -4.926212e-01  -8.622444e-01   9.891804e-01  -1.836860e-02   1.455495e-01   8.753896e-02   8.700500e-01  -4.851288e-01  -1.202822e+02  -4.997054e+00   1.414485e+02   5.779558e-01   7.060158e-01   4.092782e-01  -6.971545e-01   1.664598e-01   6.973282e-01   4.241964e-01  -6.883551e-01   5.884086e-01  -1.702803e-02  -6.361012e-03   5.800359e-02   5.926226e-01  -7.603419e-01   2.658546e-01  -7.528753e-01  -6.402004e-01  -1.527161e-01   2.863167e-01  -1.096523e-01  -9.518398e-01
