     VARIABLES=
              x              y              z      nomin_den    nomin_voidr      fabric_xx      fabric_yy      fabric_zz      fabric_xy      fabric_xz      fabric_yz       sigma_xx       sigma_yy       sigma_zz       sigma_xy       sigma_xz       sigma_yz    sigmaDot_xx    sigmaDot_yy    sigmaDot_zz    sigmaDot_xy    sigmaDot_xz    sigmaDot_yz       Oldro_xx       Oldro_xy       Oldro_xz       Oldro_yx       Oldro_yy       Oldro_yz       Oldro_zx       Oldro_zy       Oldro_zz       Trues_xx       Trues_xy       Trues_xz       Trues_yx       Trues_yy       Trues_yz       Trues_zx       Trues_zy       Trues_zz           F_xX           F_xY           F_xZ           F_yX           F_yY           F_yZ           F_zX           F_zY           F_zZ           R_xX           R_xY           R_xZ           R_yX           R_yY           R_yZ           R_zX           R_zY           R_zZ           U_xX           U_yY           U_zZ           U_xY           U_xZ           U_yZ       Green_xx       Green_yy       Green_zz       Green_xy       Green_xz       Green_yz      Green_vol      Green_shr       Euler_xx       Euler_yy       Euler_zz       Euler_xy       Euler_xz       Euler_yz      Euler_vol      Euler_shr           l_xx           l_xy           l_xz           l_yx           l_yy           l_yz           l_zx           l_zy           l_zz           d_xx           d_yy           d_zz           d_xy           d_xz           d_yz           w_xy           w_xz           w_yz     norm_sigma  norm_sigmaDot     norm_Oldro     norm_Trues         norm_F         norm_U         norm_l         norm_d         norm_w              p              q        sigma_1        sigma_2        sigma_3     sigma_1_v1     sigma_1_v2     sigma_1_v3     sigma_2_v1     sigma_2_v2     sigma_2_v3     sigma_3_v1     sigma_3_v2     sigma_3_v3     sigmaDot_1     sigmaDot_2     sigmaDot_3  sigmaDot_1_v1  sigmaDot_1_v2  sigmaDot_1_v3  sigmaDot_2_v1  sigmaDot_2_v2  sigmaDot_2_v3  sigmaDot_3_v1  sigmaDot_3_v2  sigmaDot_3_v3            d_1            d_2            d_3         d_1_v1         d_1_v2         d_1_v3         d_2_v1         d_2_v2         d_2_v3         d_3_v1         d_3_v2         d_3_v3
ZONE I=2, J=2, K=2, DATAPACKING=POINT, STRANDID=5, SOLUTIONTIME=12
   5.000000e-03   5.000000e-03   1.564674e-02   9.093544e+02   1.914155e+00   3.063629e-01   3.208290e-01   3.728081e-01   9.261156e-03  -1.757966e-02  -1.032214e-02  -1.918087e+02  -1.686662e+02  -1.909985e+02  -8.863338e+00   1.646485e+01   1.993911e+01   2.806620e+06  -1.097054e+06  -2.091072e+05   1.294157e+06   2.139537e+06   4.524142e+05   2.805670e+06   1.177565e+06   3.147226e+06   1.409983e+06  -1.098019e+06   3.256847e+05   1.128456e+06   5.775208e+05  -2.100879e+05   2.807426e+06   1.177689e+06   3.147108e+06   1.410022e+06  -1.096475e+06   3.255936e+05   1.128272e+06   5.772468e+05  -2.083397e+05   1.522019e+01  -9.183784e+02   2.949801e-01  -2.252097e+02  -6.180042e+02   7.554288e-01  -1.070073e+02  -2.327926e+02  -3.858710e-02   4.982419e-01  -8.651116e-01  -5.776639e-02  -7.710587e-01  -4.725719e-01   4.267836e-01  -3.965142e-01  -1.681002e-01  -9.025070e-01   2.236632e+02   1.125684e+03   3.401898e-01   1.112486e+02  -4.202082e-01  -6.056987e-01   3.120032e+04   6.397697e+05  -1.704125e-01   7.505659e+04  -8.075559e+01  -3.643894e+02   2.236566e+05   4.254246e+05   4.857612e-01  -2.858090e-01  -3.044310e+00   1.057663e-01  -2.246117e-01   1.668868e+00  -9.481194e-01   2.896227e+00  -2.779991e+00  -4.503269e+00  -5.962141e+00   1.566345e+00  -3.004019e+00  -5.146668e-01  -3.686554e+00  -4.635229e+00  -3.368749e+00  -2.779991e+00  -3.004019e+00  -3.368749e+00  -1.468462e+00  -4.824348e+00  -2.574948e+00  -3.034807e+00  -1.137793e+00   2.060281e+00   3.216875e+02   4.912783e+06   4.910634e+06   4.911103e+06   1.158423e+03   1.158423e+03   1.103276e+01   9.603285e+00   5.431277e+00  -1.838244e+02   6.682701e+01  -2.233767e+02  -1.818059e+02  -1.462907e+02   5.226747e-01   4.397240e-01  -7.303794e-01   8.298726e-01  -4.586313e-01   3.177558e-01   1.952500e-01   7.722047e-01   6.046299e-01  -1.591974e+06  -5.762561e+05   3.668689e+06  -2.559292e-01   9.483491e-01  -1.874411e-01  -3.491547e-01   9.012647e-02   9.327209e-01   9.014384e-01   3.041564e-01   3.080546e-01  -9.247171e+00  -1.784247e+00   1.878661e+00  -6.017867e-01  -4.213710e-01  -6.784536e-01   4.145451e-01  -8.908982e-01   1.856147e-01  -6.826457e-01  -1.695491e-01   7.108080e-01
   5.000000e-03   5.000000e-03   4.694021e-02   0.000000e+00   0.000000e+00   0.000000e+00   0.000000e+00   0.000000e+00   0.000000e+00   0.000000e+00   0.000000e+00   0.000000e+00   0.000000e+00   0.000000e+00   0.000000e+00   0.000000e+00   0.000000e+00   0.000000e+00   0.000000e+00   0.000000e+00   0.000000e+00   0.000000e+00   0.000000e+00   0.000000e+00   0.000000e+00   0.000000e+00   0.000000e+00   0.000000e+00   0.000000e+00   0.000000e+00   0.000000e+00   0.000000e+00   0.000000e+00   0.000000e+00   0.000000e+00   0.000000e+00   0.000000e+00   0.000000e+00   0.000000e+00   0.000000e+00   0.000000e+00   0.000000e+00   0.000000e+00   0.000000e+00   0.000000e+00   0.000000e+00   0.000000e+00   0.000000e+00   0.000000e+00   0.000000e+00   0.000000e+00   0.000000e+00   0.000000e+00   0.000000e+00   0.000000e+00   0.000000e+00   0.000000e+00   0.000000e+00   0.000000e+00   0.000000e+00   0.000000e+00   0.000000e+00   0.000000e+00   0.000000e+00   0.000000e+00   0.000000e+00   0.000000e+00   0.000000e+00   0.000000e+00   0.000000e+00   0.000000e+00   0.000000e+00   0.000000e+00   0.000000e+00   0.000000e+00   0.000000e+00   0.000000e+00   0.000000e+00   0.000000e+00   0.000000e+00   0.000000e+00   0.000000e+00   0.000000e+00   0.000000e+00   0.000000e+00   0.000000e+00   0.000000e+00   0.000000e+00   0.000000e+00   0.000000e+00   0.000000e+00   0.000000e+00   0.000000e+00   0.000000e+00   0.000000e+00   0.000000e+00   0.000000e+00   0.000000e+00   0.000000e+00   0.000000e+00   0.000000e+00   0.000000e+00   0.000000e+00   0.000000e+00   0.000000e+00   0.000000e+00   0.000000e+00   0.000000e+00   0.000000e+00   0.000000e+00   0.000000e+00   0.000000e+00   0.000000e+00   0.000000e+00   0.000000e+00   0.000000e+00   0.000000e+00   0.000000e+00   0.000000e+00   0.000000e+00   0.000000e+00   0.000000e+00   0.000000e+00   0.000000e+00   0.000000e+00   0.000000e+00   0.000000e+00   0.000000e+00   0.000000e+00   0.000000e+00   0.000000e+00   0.000000e+00   0.000000e+00   0.000000e+00   0.000000e+00   0.000000e+00   0.000000e+00   0.000000e+00   0.000000e+00   0.000000e+00   0.000000e+00   0.000000e+00   0.000000e+00   0.000000e+00   0.000000e+00   0.000000e+00
   5.000000e-03   1.500000e-02   1.564674e-02   8.748062e+02   2.029242e+00   3.266707e-01   3.251917e-01   3.384758e-01   1.758106e-02  -2.993267e-03   8.512268e-03  -1.642347e+02  -1.200199e+02  -1.444419e+02  -1.878847e+01   1.148301e+01  -3.424127e-01   4.449945e+06   2.287316e+05  -3.049224e+06  -3.531459e+06   2.629161e+06  -1.272556e+06   4.449103e+06  -8.986517e+05   1.101531e+06  -6.165473e+06   2.255745e+05   1.653544e+05   4.157286e+06  -2.705905e+06  -3.048798e+06   4.451409e+06  -8.983678e+05   1.101346e+06  -6.165230e+06   2.272601e+05   1.652990e+05   4.157148e+06  -2.705840e+06  -3.046769e+06  -3.630692e+02   1.714607e+01  -5.846660e-01  -3.022042e+02   3.525336e+02  -5.247582e-01   5.957405e+02  -8.107400e+01  -2.205537e-01  -5.244866e-01  -1.873964e-01  -8.305398e-01  -2.096718e-01   9.738643e-01  -8.732704e-02   8.251979e-01   1.283389e-01  -5.500705e-01   7.453924e+02   3.297018e+02   6.527341e-01  -1.498113e+02   2.346761e-01  -4.297846e-01   2.890262e+05   6.557295e+04  -1.670752e-01  -8.053070e+04   1.197328e+02  -8.856923e+01   1.181997e+05   1.981463e+05  -3.113114e-01   4.912868e-01   1.444496e-01  -8.405291e-02  -5.370843e-01  -5.564565e-02   1.081417e-01   7.837096e-01  -2.390179e+00  -2.785292e+00  -2.074903e+00   5.002318e-01  -1.324487e+01   4.975695e+00   1.814941e+00   1.281143e+01   1.590582e+00  -2.390179e+00  -1.324487e+01   1.590582e+00  -1.142530e+00  -1.299811e-01   8.893560e+00  -1.642762e+00  -1.944922e+00  -3.917865e+00   2.515110e+02   9.686031e+06   9.685394e+06   9.685575e+06   8.421407e+02   8.421407e+02   1.970196e+01   1.856085e+01   6.607732e+00  -1.428988e+02   5.222743e+01  -1.724547e+02  -1.440606e+02  -1.121812e+02   9.196428e-01   2.801560e-01  -2.752631e-01  -1.838560e-01  -3.122376e-01  -9.320433e-01  -3.470650e-01   9.077557e-01  -2.356387e-01  -4.898775e+06  -4.121276e+06   1.064950e+07  -4.216809e-01  -2.832421e-02   9.063018e-01  -4.822274e-01  -8.394371e-01  -2.506035e-01   7.678815e-01  -5.427183e-01   3.403159e-01  -1.747179e+01  -2.370976e+00   5.798290e+00   6.488742e-02   9.044831e-01  -4.215447e-01   9.951670e-01  -2.745220e-02   9.428125e-02  -7.370347e-02   4.256251e-01   9.018931e-01
   5.000000e-03   1.500000e-02   4.694021e-02   0.000000e+00   0.000000e+00   0.000000e+00   0.000000e+00   0.000000e+00   0.000000e+00   0.000000e+00   0.000000e+00   0.000000e+00   0.000000e+00   0.000000e+00   0.000000e+00   0.000000e+00   0.000000e+00   0.000000e+00   0.000000e+00   0.000000e+00   0.000000e+00   0.000000e+00   0.000000e+00   0.000000e+00   0.000000e+00   0.000000e+00   0.000000e+00   0.000000e+00   0.000000e+00   0.000000e+00   0.000000e+00   0.000000e+00   0.000000e+00   0.000000e+00   0.000000e+00   0.000000e+00   0.000000e+00   0.000000e+00   0.000000e+00   0.000000e+00   0.000000e+00   0.000000e+00   0.000000e+00   0.000000e+00   0.000000e+00   0.000000e+00   0.000000e+00   0.000000e+00   0.000000e+00   0.000000e+00   0.000000e+00   0.000000e+00   0.000000e+00   0.000000e+00   0.000000e+00   0.000000e+00   0.000000e+00   0.000000e+00   0.000000e+00   0.000000e+00   0.000000e+00   0.000000e+00   0.000000e+00   0.000000e+00   0.000000e+00   0.000000e+00   0.000000e+00   0.000000e+00   0.000000e+00   0.000000e+00   0.000000e+00   0.000000e+00   0.000000e+00   0.000000e+00   0.000000e+00   0.000000e+00   0.000000e+00   0.000000e+00   0.000000e+00   0.000000e+00   0.000000e+00   0.000000e+00   0.000000e+00   0.000000e+00   0.000000e+00   0.000000e+00   0.000000e+00   0.000000e+00   0.000000e+00   0.000000e+00   0.000000e+00   0.000000e+00   0.000000e+00   0.000000e+00   0.000000e+00   0.000000e+00   0.000000e+00   0.000000e+00   0.000000e+00   0.000000e+00   0.000000e+00   0.000000e+00   0.000000e+00   0.000000e+00   0.000000e+00   0.000000e+00   0.000000e+00   0.000000e+00   0.000000e+00   0.000000e+00   0.000000e+00   0.000000e+00   0.000000e+00   0.000000e+00   0.000000e+00   0.000000e+00   0.000000e+00   0.000000e+00   0.000000e+00   0.000000e+00   0.000000e+00   0.000000e+00   0.000000e+00   0.000000e+00   0.000000e+00   0.000000e+00   0.000000e+00   0.000000e+00   0.000000e+00   0.000000e+00   0.000000e+00   0.000000e+00   0.000000e+00   0.000000e+00   0.000000e+00   0.000000e+00   0.000000e+00   0.000000e+00   0.000000e+00   0.000000e+00   0.000000e+00   0.000000e+00   0.000000e+00   0.000000e+00   0.000000e+00   0.000000e+00
   1.500000e-02   5.000000e-03   1.564674e-02   9.569601e+02   1.769185e+00   3.216631e-01   3.312622e-01   3.470747e-01   1.312842e-02  -3.506856e-03   2.040137e-03  -2.381000e+02  -2.747415e+02  -2.996304e+02   2.707140e+01   5.794697e+01  -2.210340e+01  -5.065651e+05  -3.193844e+06  -4.676026e+05   1.084651e+05  -2.888566e+05  -4.645525e+05  -5.061737e+05   1.250796e+06  -1.033506e+06  -1.034537e+06  -3.191912e+06   1.414579e+05   4.527010e+05  -1.069592e+06  -4.689067e+05  -5.063256e+05   1.250806e+06  -1.033472e+06  -1.034513e+06  -3.192087e+06   1.414461e+05   4.527413e+05  -1.069609e+06  -4.690979e+05  -1.020098e+03   1.031145e+03  -4.006841e-02  -3.024384e+02   1.773750e+02   1.909422e-02   1.538741e+03   2.390958e+02   1.779126e-01  -4.288683e-01   8.842505e-01  -1.848595e-01  -1.447618e-01   1.347189e-01   9.802524e-01   8.916928e-01   4.471598e-01   7.022899e-02   1.853354e+03   1.042600e+03   3.861881e-02  -2.547026e+02   1.730634e-01   4.669722e-02   1.749896e+06   5.759440e+05  -4.831885e-01  -3.688035e+05   1.544302e+02   2.304327e+00   7.752799e+05   1.114362e+06  -1.097132e+01  -3.219983e+02  -1.149512e+00   6.082336e+01   4.349952e+00  -2.306436e+01  -1.113730e+02   2.237461e+02   2.835193e-01  -7.107103e-01  -1.880626e+00   3.685485e-01   3.433429e+00   1.484904e+00  -4.771107e+00  -2.737165e-01  -3.078658e+00   2.835193e-01   3.433429e+00  -3.078658e+00  -1.710809e-01  -3.325867e+00   6.055939e-01  -5.396294e-01   1.445241e+00   8.793104e-01   4.810832e+02   3.968205e+06   3.966894e+06   3.967074e+06   2.156776e+03   2.156776e+03   7.111116e+00   6.652951e+00   2.511218e+00  -2.708240e+02   1.455332e+02  -3.602756e+02  -2.586372e+02  -1.935592e+02  -5.168494e-01   4.501800e-01   7.281516e-01   9.054042e-03   8.533955e-01  -5.211854e-01  -8.560285e-01  -2.627816e-01  -4.451529e-01  -3.784101e+06  -9.417244e+05   5.578139e+05   2.566060e-01   9.295458e-01   2.647603e-01   7.205175e-01  -1.393125e-03  -6.934354e-01   6.442111e-01  -3.687041e-01   6.701115e-01  -5.145402e+00   2.163478e+00   3.620214e+00   5.205975e-01  -4.978689e-02   8.523494e-01   8.122250e-01   3.366103e-01  -4.764284e-01   2.631897e-01  -9.403269e-01  -2.156766e-01
   1.500000e-02   5.000000e-03   4.694021e-02   0.000000e+00   0.000000e+00   0.000000e+00   0.000000e+00   0.000000e+00   0.000000e+00   0.000000e+00   0.000000e+00   0.000000e+00   0.000000e+00   0.000000e+00   0.000000e+00   0.000000e+00   0.000000e+00   0.000000e+00   0.000000e+00   0.000000e+00   0.000000e+00   0.000000e+00   0.000000e+00   0.000000e+00   0.000000e+00   0.000000e+00   0.000000e+00   0.000000e+00   0.000000e+00   0.000000e+00   0.000000e+00   0.000000e+00   0.000000e+00   0.000000e+00   0.000000e+00   0.000000e+00   0.000000e+00   0.000000e+00   0.000000e+00   0.000000e+00   0.000000e+00   0.000000e+00   0.000000e+00   0.000000e+00   0.000000e+00   0.000000e+00   0.000000e+00   0.000000e+00   0.000000e+00   0.000000e+00   0.000000e+00   0.000000e+00   0.000000e+00   0.000000e+00   0.000000e+00   0.000000e+00   0.000000e+00   0.000000e+00   0.000000e+00   0.000000e+00   0.000000e+00   0.000000e+00   0.000000e+00   0.000000e+00   0.000000e+00   0.000000e+00   0.000000e+00   0.000000e+00   0.000000e+00   0.000000e+00   0.000000e+00   0.000000e+00   0.000000e+00   0.000000e+00   0.000000e+00   0.000000e+00   0.000000e+00   0.000000e+00   0.000000e+00   0.000000e+00   0.000000e+00   0.000000e+00   0.000000e+00   0.000000e+00   0.000000e+00   0.000000e+00   0.000000e+00   0.000000e+00   0.000000e+00   0.000000e+00   0.000000e+00   0.000000e+00   0.000000e+00   0.000000e+00   0.000000e+00   0.000000e+00   0.000000e+00   0.000000e+00   0.000000e+00   0.000000e+00   0.000000e+00   0.000000e+00   0.000000e+00   0.000000e+00   0.000000e+00   0.000000e+00   0.000000e+00   0.000000e+00   0.000000e+00   0.000000e+00   0.000000e+00   0.000000e+00   0.000000e+00   0.000000e+00   0.000000e+00   0.000000e+00   0.000000e+00   0.000000e+00   0.000000e+00   0.000000e+00   0.000000e+00   0.000000e+00   0.000000e+00   0.000000e+00   0.000000e+00   0.000000e+00   0.000000e+00   0.000000e+00   0.000000e+00   0.000000e+00   0.000000e+00   0.000000e+00   0.000000e+00   0.000000e+00   0.000000e+00   0.000000e+00   0.000000e+00   0.000000e+00   0.000000e+00   0.000000e+00   0.000000e+00   0.000000e+00   0.000000e+00   0.000000e+00   0.000000e+00   0.000000e+00
   1.500000e-02   1.500000e-02   1.564674e-02   9.037527e+02   1.932218e+00   3.273243e-01   3.292444e-01   3.434312e-01   2.903798e-03   3.960429e-03   8.464088e-03  -2.454704e+02  -2.853695e+02  -2.250188e+02  -2.069293e+01   2.794205e+01   4.181917e+01   1.339269e+06   1.405840e+06   7.442262e+05  -8.850742e+04   1.255198e+06  -7.259460e+05   1.338962e+06   5.479250e+05   3.013745e+06  -7.250480e+05   1.405449e+06  -1.348317e+05  -5.018177e+05  -1.316550e+06   7.431998e+05   1.339742e+06   5.479898e+05   3.013661e+06  -7.249813e+05   1.406356e+06  -1.349744e+05  -5.019114e+05  -1.316673e+06   7.439145e+05   3.402761e+02  -8.790407e+01   4.597921e-02  -7.845898e+02   4.884456e+02  -1.623988e-02  -1.343633e+02   1.652004e+02   3.997676e-02   6.920201e-01   5.076507e-01  -5.132241e-01  -7.099170e-01   6.074764e-01  -3.563570e-01   1.308667e-01   6.109527e-01   7.807757e-01   7.748878e+02   3.530243e+02   1.340243e-02  -3.859680e+02   4.857913e-02   3.789994e-02   3.747107e+05   1.367982e+05  -4.980120e-01  -2.176690e+05   1.150793e+01  -2.684941e+00   1.705028e+05   3.333345e+05  -7.367260e+02  -3.545236e+02  -1.702086e+03  -5.115981e+02   1.120353e+03   7.774691e+02  -9.311119e+02   1.863224e+03  -4.836708e-01  -5.404547e-01   8.298454e-01   7.427218e-01  -6.088952e-01   8.887743e-01   1.997292e+00  -2.740737e-01  -2.083570e+00  -4.836708e-01  -6.088952e-01  -2.083570e+00   1.011336e-01   1.413569e+00   3.073503e-01  -6.415882e-01  -5.837235e-01   5.814240e-01   4.452695e+02   4.028975e+06   4.028937e+06   4.029635e+06   1.011444e+03   1.011444e+03   3.366383e+00   3.025176e+00   1.476768e+00  -2.519529e+02   1.060908e+02  -3.186279e+02  -2.390503e+02  -1.981805e+02  -4.104595e-01  -7.897015e-01   4.559545e-01  -8.127533e-01   5.435429e-01   2.097455e-01   4.134672e-01   2.844865e-01   8.649349e-01  -6.443152e+05   1.625503e+06   2.508147e+06   3.943514e-01   5.912848e-01   7.034694e-01   8.768468e-01  -1.302750e-02  -4.805934e-01   2.750032e-01  -8.063576e-01   5.236036e-01  -2.927849e+00  -6.478634e-01   3.995772e-01  -4.955992e-01  -9.284283e-02   8.635749e-01  -2.509626e-01   9.671681e-01  -4.004543e-02  -8.315042e-01  -2.365714e-01  -5.026279e-01
   1.500000e-02   1.500000e-02   4.694021e-02   0.000000e+00   0.000000e+00   0.000000e+00   0.000000e+00   0.000000e+00   0.000000e+00   0.000000e+00   0.000000e+00   0.000000e+00   0.000000e+00   0.000000e+00   0.000000e+00   0.000000e+00   0.000000e+00   0.000000e+00   0.000000e+00   0.000000e+00   0.000000e+00   0.000000e+00   0.000000e+00   0.000000e+00   0.000000e+00   0.000000e+00   0.000000e+00   0.000000e+00   0.000000e+00   0.000000e+00   0.000000e+00   0.000000e+00   0.000000e+00   0.000000e+00   0.000000e+00   0.000000e+00   0.000000e+00   0.000000e+00   0.000000e+00   0.000000e+00   0.000000e+00   0.000000e+00   0.000000e+00   0.000000e+00   0.000000e+00   0.000000e+00   0.000000e+00   0.000000e+00   0.000000e+00   0.000000e+00   0.000000e+00   0.000000e+00   0.000000e+00   0.000000e+00   0.000000e+00   0.000000e+00   0.000000e+00   0.000000e+00   0.000000e+00   0.000000e+00   0.000000e+00   0.000000e+00   0.000000e+00   0.000000e+00   0.000000e+00   0.000000e+00   0.000000e+00   0.000000e+00   0.000000e+00   0.000000e+00   0.000000e+00   0.000000e+00   0.000000e+00   0.000000e+00   0.000000e+00   0.000000e+00   0.000000e+00   0.000000e+00   0.000000e+00   0.000000e+00   0.000000e+00   0.000000e+00   0.000000e+00   0.000000e+00   0.000000e+00   0.000000e+00   0.000000e+00   0.000000e+00   0.000000e+00   0.000000e+00   0.000000e+00   0.000000e+00   0.000000e+00   0.000000e+00   0.000000e+00   0.000000e+00   0.000000e+00   0.000000e+00   0.000000e+00   0.000000e+00   0.000000e+00   0.000000e+00   0.000000e+00   0.000000e+00   0.000000e+00   0.000000e+00   0.000000e+00   0.000000e+00   0.000000e+00   0.000000e+00   0.000000e+00   0.000000e+00   0.000000e+00   0.000000e+00   0.000000e+00   0.000000e+00   0.000000e+00   0.000000e+00   0.000000e+00   0.000000e+00   0.000000e+00   0.000000e+00   0.000000e+00   0.000000e+00   0.000000e+00   0.000000e+00   0.000000e+00   0.000000e+00   0.000000e+00   0.000000e+00   0.000000e+00   0.000000e+00   0.000000e+00   0.000000e+00   0.000000e+00   0.000000e+00   0.000000e+00   0.000000e+00   0.000000e+00   0.000000e+00   0.000000e+00   0.000000e+00   0.000000e+00   0.000000e+00   0.000000e+00   0.000000e+00
