     VARIABLES=
              x              y              z      nomin_den    nomin_voidr      fabric_xx      fabric_yy      fabric_zz      fabric_xy      fabric_xz      fabric_yz       sigma_xx       sigma_yy       sigma_zz       sigma_xy       sigma_xz       sigma_yz    sigmaDot_xx    sigmaDot_yy    sigmaDot_zz    sigmaDot_xy    sigmaDot_xz    sigmaDot_yz       Oldro_xx       Oldro_xy       Oldro_xz       Oldro_yx       Oldro_yy       Oldro_yz       Oldro_zx       Oldro_zy       Oldro_zz       Trues_xx       Trues_xy       Trues_xz       Trues_yx       Trues_yy       Trues_yz       Trues_zx       Trues_zy       Trues_zz           F_xX           F_xY           F_xZ           F_yX           F_yY           F_yZ           F_zX           F_zY           F_zZ           R_xX           R_xY           R_xZ           R_yX           R_yY           R_yZ           R_zX           R_zY           R_zZ           U_xX           U_yY           U_zZ           U_xY           U_xZ           U_yZ       Green_xx       Green_yy       Green_zz       Green_xy       Green_xz       Green_yz      Green_vol      Green_shr       Euler_xx       Euler_yy       Euler_zz       Euler_xy       Euler_xz       Euler_yz      Euler_vol      Euler_shr           l_xx           l_xy           l_xz           l_yx           l_yy           l_yz           l_zx           l_zy           l_zz           d_xx           d_yy           d_zz           d_xy           d_xz           d_yz           w_xy           w_xz           w_yz     norm_sigma  norm_sigmaDot     norm_Oldro     norm_Trues         norm_F         norm_U         norm_l         norm_d         norm_w              p              q        sigma_1        sigma_2        sigma_3     sigma_1_v1     sigma_1_v2     sigma_1_v3     sigma_2_v1     sigma_2_v2     sigma_2_v3     sigma_3_v1     sigma_3_v2     sigma_3_v3     sigmaDot_1     sigmaDot_2     sigmaDot_3  sigmaDot_1_v1  sigmaDot_1_v2  sigmaDot_1_v3  sigmaDot_2_v1  sigmaDot_2_v2  sigmaDot_2_v3  sigmaDot_3_v1  sigmaDot_3_v2  sigmaDot_3_v3            d_1            d_2            d_3         d_1_v1         d_1_v2         d_1_v3         d_2_v1         d_2_v2         d_2_v3         d_3_v1         d_3_v2         d_3_v3
ZONE I=2, J=2, K=2, DATAPACKING=POINT, STRANDID=5, SOLUTIONTIME=37
   5.000000e-03   5.000000e-03   5.253276e-03   1.575477e+03   6.820305e-01   3.406833e-01   3.072534e-01   3.520633e-01   6.659699e-03  -4.546456e-04   5.924179e-04  -3.169660e+02  -2.445775e+02  -3.734414e+02  -2.417794e+01   2.390581e+01  -2.606107e+01   1.460670e+01   1.796446e+01   5.674415e+00  -1.439824e+01   1.042869e+01  -3.144687e+00   2.673205e+01  -9.912433e+00   1.079727e+01  -5.611114e+00   1.993635e+01  -4.003985e+00   8.712263e+00  -3.540063e+00   5.671632e+00   1.999195e+01  -1.042656e+01   1.130562e+01  -6.125244e+00   1.473554e+01  -4.558159e+00   9.220605e+00  -4.094238e+00  -2.269396e+00   5.032500e+02  -8.528167e+02  -2.714400e-03  -3.362525e+02  -1.006594e+03   2.803877e-03  -8.374792e+01   1.692018e+02   1.988984e-02   7.726087e-01  -6.102331e-01   1.751896e-01  -6.221055e-01  -7.827479e-01   1.704119e-02  -1.267302e-01   1.221526e-01   9.843872e-01   6.086132e+02   1.328995e+03   1.915155e-02  -5.412888e+01  -6.362120e-03   1.891282e-03   1.866695e+05   8.845781e+05  -4.997946e-01  -5.244028e+04  -1.987283e+00   1.428957e+00   3.570824e+05   5.417874e+05  -4.134319e+01   1.043810e-01  -1.320479e+03  -4.068651e+00  -2.351042e+02  -2.286052e+01  -4.539061e+02   9.088122e+02   1.886661e-02   2.614499e-03  -8.110942e-04   1.730839e-02   2.399581e-03  -7.450658e-04   3.688539e-05   5.274268e-06  -1.733554e-06   1.886661e-02   2.399581e-03  -1.733554e-06   9.961445e-03  -3.871044e-04  -3.698958e-04  -7.346946e-03  -4.239898e-04  -3.751700e-04   5.508308e+02   3.509587e+01   3.866546e+01   3.191508e+01   1.463727e+03   1.463727e+03   2.587155e-02   2.367997e-02   1.042095e-02  -3.116616e+02   1.342514e+02  -3.842637e+02  -3.206873e+02  -2.300338e+02  -2.913886e-01   1.264703e-01   9.482078e-01  -9.024941e-01  -3.649927e-01  -2.286585e-01   3.171704e-01  -9.223804e-01   2.204934e-01  -1.527034e+00   8.306376e+00   3.146623e+01  -6.375726e-01  -2.942249e-01   7.119922e-01   3.858365e-01   6.779806e-01   6.256776e-01   6.668068e-01  -6.736275e-01   3.187392e-01  -2.303147e-03  -9.771639e-08   2.356770e-02   4.234993e-01  -9.028786e-01  -7.388177e-02   5.092259e-02  -5.770098e-02   9.970343e-01   9.044641e-01   4.260056e-01  -2.154060e-02
   5.000000e-03   5.000000e-03   1.575983e-02   1.087368e+03   1.437076e+00   3.564787e-01   3.196542e-01   3.238671e-01  -1.130126e-02   2.350286e-02   3.392461e-04  -6.728522e+01  -7.686862e+01  -1.060296e+02   8.008474e+00   6.965199e-01   1.498198e+00   3.536292e+01   1.080170e+01   2.037914e+01  -1.078229e+01  -3.376190e+01   8.021187e+00   3.536314e+01  -1.056154e+01  -3.241526e+01  -1.100319e+01   1.080172e+01   8.801342e+00  -3.510863e+01   7.241107e+00   2.037916e+01   3.536302e+01  -1.056153e+01  -3.241526e+01  -1.100317e+01   1.080159e+01   8.801345e+00  -3.510863e+01   7.241110e+00   2.037898e+01   4.045324e+02  -1.217120e+03   1.976895e-02  -1.073970e+03   1.174091e+03  -1.298038e-03  -1.136228e+02  -8.644495e+02   2.675489e-02   6.245659e-03  -6.724524e-01  -7.401141e-01  -8.660895e-01   3.663227e-01  -3.401420e-01  -4.998499e-01  -6.431294e-01   5.801160e-01   9.894754e+02   1.804504e+03   1.331180e-03  -5.923744e+02  -1.212574e-02  -3.097603e-02   6.649840e+05   1.803571e+06  -4.994458e-01  -8.275409e+05   3.175634e+00  -2.435672e+01   8.228515e+05   1.422080e+06  -1.547957e+05  -3.269594e+04  -9.508753e+04  -7.114272e+04   1.213230e+05   5.575876e+04  -9.419307e+04   1.883871e+05   1.509087e-06  -5.179198e-07  -5.105691e-07  -3.273800e-07   1.020765e-07   3.879753e-07   1.568730e-07  -2.842721e-08   8.612361e-08   1.509087e-06   1.020765e-07   8.612361e-08  -4.226499e-07  -1.768481e-07   1.797740e-07  -9.526992e-08  -3.337210e-07   2.082013e-07   1.476892e+02   6.654616e+01   6.654636e+01   6.654622e+01   2.221961e+03   2.221961e+03   1.762732e-06   1.667224e-06   5.723528e-07  -8.339447e+01   3.771282e+01  -1.061086e+02  -8.137219e+01  -6.270265e+01   7.804499e-03   4.903693e-02  -9.987665e-01  -4.952931e-01   8.678617e-01   3.873955e-02   8.686909e-01   4.943798e-01   3.106088e-02  -8.128912e+00   7.834912e+00   6.683776e+01   6.380720e-01   7.785798e-02   7.660302e-01   1.271043e-01   9.705751e-01  -2.045203e-01   7.594134e-01  -2.278644e-01  -6.094007e-01  -1.095130e-07   1.499487e-07   1.656852e-06  -1.407242e-01  -7.891084e-01   5.979169e-01  -2.735786e-01  -5.494180e-01  -7.894901e-01   9.514996e-01  -2.746776e-01  -1.385668e-01
   5.000000e-03   1.500000e-02   5.253276e-03   1.524977e+03   7.377309e-01   3.310363e-01   3.223801e-01   3.465836e-01  -4.680515e-04   1.680234e-03   1.542338e-02  -2.982653e+02  -2.536224e+02  -2.910102e+02  -7.169586e+00   2.962165e+01  -3.487337e+01   3.062746e+00   3.059691e+00  -1.986325e+00  -3.544461e+00   8.176229e-01  -6.237244e-01   3.820110e+00  -5.015378e+00  -1.381115e+00  -5.034599e+00   3.222860e+00  -1.131092e-01  -7.042847e-01  -7.586832e-02  -1.890028e+00   3.503734e+00  -5.022983e+00  -1.349694e+00  -5.042204e+00   2.953838e+00  -1.501002e-01  -6.728645e-01  -1.128591e-01  -2.198709e+00  -4.851169e+02   4.747914e+01  -1.251500e+00  -3.665784e+02   1.904519e+02  -1.065022e+00  -5.600465e+02  -5.988024e+02  -5.650904e-01  -6.540531e-01   2.627205e-01  -7.093606e-01  -5.545861e-01   4.711998e-01   6.858608e-01  -5.144403e-01  -8.419909e-01   1.624885e-01   8.087020e+02   6.064008e+02   6.548768e-02   1.713722e+02   1.699899e+00  -3.548319e-01   3.416846e+05   1.985448e+05   1.009926e+00   1.212543e+05   6.570074e+02   3.806094e+01   1.800768e+05   2.426129e+05  -6.671934e+01  -6.302485e+01  -3.052825e+00   6.534599e+01   1.545375e+01  -1.502307e+01  -4.426567e+01   8.953134e+01   6.561403e-04  -4.954738e-04  -6.297102e-03  -3.690228e-03   2.357206e-04   1.383800e-03   4.638939e-05   1.097477e-05   1.688589e-04   6.561403e-04   2.357206e-04   1.688589e-04  -2.092851e-03  -3.125357e-03   6.973873e-04   1.597377e-03  -3.171746e-03   6.864125e-04   4.922026e+02   7.082303e+00   9.026379e+00   8.876908e+00   1.039454e+03   1.039454e+03   7.479876e-03   5.457385e-03   5.115222e-03  -2.809660e+02   9.031449e+01  -3.296166e+02  -2.873611e+02  -2.259203e+02  -6.261121e-01   2.756412e-01   7.293871e-01  -7.182286e-01  -5.680178e-01  -4.018750e-01  -3.035315e-01   7.754855e-01  -5.536162e-01  -2.247689e+00  -4.085878e-01   6.792389e+00  -2.478140e-01  -5.567491e-02   9.672066e-01  -6.639576e-01  -7.172647e-01  -2.114043e-01   7.055130e-01  -6.945730e-01   1.407824e-01  -3.033672e-03  -4.224053e-04   4.516798e-03   7.116055e-01   3.223639e-01   6.242588e-01   8.682200e-02   8.413658e-01  -5.334469e-01   6.971940e-01  -4.338032e-01  -5.707322e-01
   5.000000e-03   1.500000e-02   1.575983e-02   1.197247e+03   1.213411e+00   3.400476e-01   3.266872e-01   3.332651e-01   1.729874e-02   2.015663e-02   1.380809e-03  -1.009796e+02  -8.771212e+01  -1.334365e+02  -1.028458e+01  -9.300427e+00  -1.428124e+00  -4.629464e+00  -3.847021e+00   1.002947e+00   2.015681e+00   4.629554e-01   2.647443e-01  -4.629470e+00   2.133107e+00   9.580773e-01   1.898290e+00  -3.847030e+00   3.199938e-01  -3.217126e-02   2.094868e-01   1.002956e+00  -4.629463e+00   2.133108e+00   9.580779e-01   1.898291e+00  -3.847024e+00   3.199939e-01  -3.217065e-02   2.094869e-01   1.002965e+00  -5.672912e+02  -1.812678e+02  -2.394195e-02  -7.769725e+02   1.160700e+03   2.442849e-03   4.112235e+02  -6.676939e+02   1.621063e-02  -8.731146e-01  -4.854220e-01  -4.512674e-02  -4.421288e-01   7.494295e-01   4.928261e-01   2.054093e-01  -4.502455e-01   8.689568e-01   9.233013e+02   1.258480e+03   1.637066e-02  -4.920620e+02   2.315382e-02   6.153928e-03   5.473047e+05   9.129486e+05  -4.995790e-01  -5.367860e+05   9.175111e+00  -1.824209e+00   4.867509e+05   8.158907e+05  -3.293094e+00  -4.526868e+02  -1.408415e+03   4.146058e+01   7.310366e+01  -7.990630e+02  -6.214649e+02   1.243930e+03  -3.553727e-08   1.258670e-07  -5.282986e-08   8.102048e-08  -6.128732e-08  -3.260306e-08   4.557872e-08  -8.916104e-09   3.061277e-08  -3.553727e-08  -6.128732e-08   3.061277e-08   1.034438e-07  -3.625571e-09  -2.075958e-08   2.242328e-08  -4.920429e-08  -1.184348e-08   1.899585e+02   6.815875e+00   6.815895e+00   6.815889e+00   1.708950e+03   1.708950e+03   1.854019e-07   1.680643e-07   7.828325e-08  -1.073761e+02   4.736106e+01  -1.362646e+02  -1.039671e+02  -8.189647e+01   2.775531e-01   8.693237e-02   9.567691e-01  -8.215043e-01  -4.948586e-01   2.832766e-01   4.980913e-01  -8.646142e-01  -6.593421e-02  -6.179856e+00  -2.306163e+00   1.012482e+00  -7.745009e-01   6.321933e-01  -2.190697e-02  -6.324918e-01  -7.733830e-01   4.281213e-02  -1.012306e-02  -4.701401e-02  -9.988429e-01  -1.536009e-07   2.327458e-08   6.411450e-08  -6.560567e-01   7.512930e-01   7.175336e-02  -3.815283e-01  -2.481224e-01  -8.904333e-01  -6.511726e-01  -6.115506e-01   4.494219e-01
   1.500000e-02   5.000000e-03   5.253276e-03   1.713035e+03   5.469623e-01   3.321951e-01   3.199125e-01   3.478925e-01   4.590576e-03  -1.143689e-02   2.026622e-02  -2.892154e+02  -2.588906e+02  -3.697146e+02   1.824195e+01  -3.766729e+00  -4.825646e+01  -8.146470e+01  -4.107966e+01  -1.547173e+02   6.316552e+01   1.719846e+01  -1.947267e+01  -8.147598e+01   6.916601e+01   7.699838e+01   5.735688e+01  -4.105031e+01   1.480077e+02  -4.239544e+01  -1.869094e+02  -1.547193e+02  -8.148822e+01   6.916678e+01   7.699822e+01   5.735765e+01  -4.106127e+01   1.480057e+02  -4.239560e+01  -1.869115e+02  -1.547349e+02  -7.281825e+00  -1.216228e+02  -2.038514e-02  -1.149843e+03   4.503880e+02   1.728116e-03   1.262868e+03  -8.441164e+02   1.515193e-02  -2.039300e-01  -4.244408e-01  -8.821919e-01  -8.860398e-01  -3.032171e-01   3.507035e-01   4.163485e-01  -8.531761e-01   3.142364e-01   1.546085e+03   6.352362e+02   2.335095e-02  -7.257057e+02   8.934445e-03  -4.798972e-03   1.458513e+06   4.650864e+05  -4.996759e-01  -7.914986e+05   8.648130e+00  -4.766185e+00   6.411996e+05   1.255148e+06  -7.131561e+02  -1.122852e+02  -9.004523e+01   2.837074e+02   2.542010e+02  -1.010553e+02  -3.051622e+02   6.113244e+02  -1.968205e-06   3.269190e-04   2.366900e-04   2.123402e-06   5.027771e-05   3.520077e-05   7.708071e-07   2.575271e-05  -5.986348e-06  -1.968205e-06   5.027771e-05  -5.986348e-06   1.645212e-04   1.187304e-04   3.047674e-05   1.623978e-04   1.179596e-04   4.724029e-06   5.410269e+02   3.238412e+02   3.238870e+02   3.238995e+02   1.961428e+03   1.961428e+03   4.091126e-04   2.945395e-04   2.839360e-04  -3.059402e+02   1.336614e+02  -3.878617e+02  -2.953402e+02  -2.346188e+02   2.980010e-02  -3.539224e-01  -9.347999e-01  -9.470443e-01   2.891399e-01  -1.396610e-01   3.197172e-01   8.894589e-01  -3.265638e-01  -2.932742e+02  -1.064052e+02   1.224177e+02  -2.245875e-04  -5.954424e-01  -8.033980e-01  -9.439307e-01   2.653630e-01  -1.964112e-01   3.301437e-01   7.583079e-01  -5.621159e-01  -1.770247e-04  -1.554386e-05   2.348917e-04   7.553232e-01  -4.880607e-01  -4.373599e-01   8.609237e-02  -5.876861e-01   8.044956e-01   6.496730e-01   6.453075e-01   4.018747e-01
   1.500000e-02   5.000000e-03   1.575983e-02   1.115058e+03   1.376559e+00   3.330019e-01   3.613500e-01   3.056481e-01   1.096332e-02   3.956540e-03   2.199389e-03  -1.124345e+02  -1.196831e+02  -1.337026e+02  -1.967316e+00   1.112226e+00   1.552685e+01  -2.313265e+01  -2.287546e+01   2.373701e+01  -1.718123e+01  -1.816884e+01   1.244663e+01  -2.313272e+01  -1.733376e+01  -8.040314e+00  -1.702898e+01  -2.287535e+01   1.281664e+01  -2.829791e+01   1.207709e+01   2.373724e+01  -2.313286e+01  -1.733376e+01  -8.040312e+00  -1.702898e+01  -2.287550e+01   1.281666e+01  -2.829791e+01   1.207711e+01   2.373708e+01  -1.124083e+03   1.271325e+03   1.067151e+01   5.422837e+02  -2.595663e+02  -1.056540e+01   1.155394e+03   5.020247e+02   3.861076e+00  -5.138166e-01   8.180652e-01  -2.583831e-01   3.000325e-01  -1.108089e-01  -9.474713e-01   8.037244e-01   5.643498e-01   1.885107e-01   1.668894e+03   1.352107e+03   7.980928e+00  -3.276168e+02  -5.549919e+00   1.207973e+01   1.446285e+06   9.678349e+05   1.197083e+02  -4.948988e+05  -6.632021e+03   9.123865e+03   8.047466e+05   1.024922e+06   4.994273e-01   4.927722e-01   4.997233e-01  -2.034181e-03   3.976825e-04   1.413318e-03   4.973076e-01   5.384273e-03  -3.110784e-07  -1.690775e-06  -2.251833e-06   2.863059e-07   6.374249e-07   1.402986e-06  -4.764801e-09   6.188479e-07   9.266657e-07  -3.110784e-07   6.374249e-07   9.266657e-07  -7.022344e-07  -1.128299e-06   1.010917e-06  -9.885403e-07  -1.123534e-06   3.920691e-07   2.129187e+02   5.820478e+01   5.820522e+01   5.820527e+01   2.197381e+03   2.197381e+03   3.424120e-06   2.634024e-06   2.187811e-06  -1.219401e+02   3.300411e+01  -1.438562e+02  -1.126710e+02  -1.092930e+02  -6.363924e-02  -5.430005e-01   8.373175e-01  -9.426291e-01  -2.428155e-01  -2.291092e-01  -3.277200e-01   8.038601e-01   4.963955e-01  -4.302346e+01  -2.147252e+01   4.222489e+01  -8.079360e-01  -5.356691e-01  -2.455567e-01   3.904507e-01  -7.987502e-01   4.577623e-01   4.413476e-01  -2.739648e-01  -8.544914e-01  -9.867440e-07  -1.946870e-07   2.434443e-06  -8.773325e-01  -8.540744e-02  -4.722217e-01  -2.065736e-01  -8.209817e-01   5.322747e-01   4.331456e-01  -5.645304e-01  -7.026310e-01
   1.500000e-02   1.500000e-02   5.253276e-03   1.596827e+03   6.595413e-01   3.125503e-01   3.301828e-01   3.572669e-01  -2.504413e-03   1.060467e-02   2.158157e-02  -3.139564e+02  -3.485359e+02  -3.552319e+02  -4.051793e+01   1.805460e+01   2.114026e+01  -9.397693e+00  -3.082011e+00  -1.561309e+01  -4.109954e+00   2.053186e+00  -2.193372e+00  -4.069228e+01  -3.988916e+01   2.136815e+01  -3.928207e+01   4.285921e+00  -6.551212e+01   2.138838e+01  -6.675834e+01  -2.639927e+01  -2.520747e+01  -3.789087e+01   2.047766e+01  -3.728354e+01   2.147625e+01  -6.655500e+01   2.049791e+01  -6.780079e+01  -8.878691e+00   6.065664e+02  -2.779747e+02   4.716891e-03  -1.126773e+03   9.332032e+02  -3.909179e-03  -7.767741e+02   7.288631e+02   9.516820e-03   8.285717e-01   4.886811e-01  -2.732392e-01  -5.355427e-01   5.494275e-01  -6.413450e-01  -1.632881e-01   6.777316e-01   7.169497e-01   1.232857e+03   8.708601e+02   8.041374e-03  -8.491068e+02   4.447831e-03   6.607095e-03   1.120458e+06   7.396893e+05  -4.999359e-01  -8.931400e+05  -6.327736e-02   9.886121e-01   6.200491e+05   1.223270e+06  -5.770030e+02  -3.180282e+03  -3.974158e+03  -1.355327e+03   1.515050e+03   3.555632e+03  -2.577148e+03   5.155295e+03  -5.061999e-02   8.737387e-03   6.028763e-03  -1.286671e-01   1.378697e-02  -1.935660e-01   5.152994e-02   1.249547e-03  -1.248853e-02  -5.061999e-02   1.378697e-02  -1.248853e-02  -5.996487e-02   2.877935e-02  -9.615825e-02   6.870226e-02  -2.275059e-02  -9.740780e-02   5.925072e+02   1.985904e+01   1.231582e+02   1.177594e+02   1.928807e+03   1.928807e+03   2.443380e-01   1.739233e-01   1.716151e-01  -3.392414e+02   9.335895e+01  -3.946572e+02  -3.360715e+02  -2.869955e+02  -4.663269e-01  -6.728672e-01   5.742725e-01   2.689048e-01   5.106362e-01   8.166645e-01  -8.427511e-01   5.352573e-01  -5.718618e-02  -1.647156e+01  -1.110674e+01  -5.144970e-01  -2.040052e-01   1.456305e-01   9.680773e-01  -8.808825e-01  -4.587436e-01  -1.166204e-01   4.271158e-01  -8.765535e-01   2.218695e-01  -1.054895e-01  -6.557460e-02   1.217426e-01   4.511937e-01   6.865131e-01   5.701965e-01  -8.204932e-01   6.780001e-02   5.676214e-01   3.510202e-01  -7.239495e-01   5.938702e-01
   1.500000e-02   1.500000e-02   1.575983e-02   1.193231e+03   1.220861e+00   3.295687e-01   3.120910e-01   3.583403e-01  -1.015338e-02  -9.363665e-03  -6.333301e-03  -7.718161e+01  -7.533090e+01  -1.001782e+02   4.740636e-01   1.207402e+01   4.109583e+00   2.621475e+00   2.035384e+00   4.255746e+00   1.835222e+00  -8.703592e-01   3.596153e+00   2.621469e+00   1.769702e+00  -1.404850e+00   1.900749e+00   2.035380e+00   3.808272e+00  -3.358647e-01   3.384061e+00   4.255786e+00   2.621458e+00   1.769702e+00  -1.404848e+00   1.900750e+00   2.035369e+00   3.808272e+00  -3.358629e-01   3.384061e+00   4.255771e+00  -6.868624e+02   6.663999e+02  -2.046772e-02  -8.595599e+02   5.223412e+02  -1.319020e-02   4.212961e+02  -3.533681e+02   1.196912e-02  -9.087297e-02   9.288243e-01   3.592039e-01  -9.737723e-01  -1.584258e-01   1.633060e-01   2.085898e-01  -3.349427e-01   9.188600e-01   9.873109e+02   6.545742e+02   1.491819e-03  -6.429081e+02   1.720085e-02  -2.093021e-02   6.940563e+05   4.208986e+05  -4.996319e-01  -5.277906e+05   1.521941e+01  -1.237949e+01   3.716515e+05   7.310363e+05  -2.902842e+04  -5.997121e+03  -1.899086e+05  -1.319487e+04  -7.424862e+04  -3.374912e+04  -7.497805e+04   1.499571e+05  -4.102322e-08   1.913350e-07  -1.940045e-08  -1.160543e-07  -1.349304e-08   1.918574e-07   8.316689e-08  -8.502280e-08   2.048174e-07  -4.102322e-08  -1.349304e-08   2.048174e-07   3.764032e-08   3.188322e-08   5.341730e-08   1.536946e-07  -5.128367e-08   1.384401e-07   1.483010e+02   7.994497e+00   7.994529e+00   7.994514e+00   1.493289e+03   1.493289e+03   3.810827e-07   2.332136e-07   3.013892e-07  -8.423022e+01   3.261153e+01  -1.057781e+02  -7.596014e+01  -7.095239e+01  -3.846164e-01  -1.175878e-01   9.155563e-01  -4.638511e-01   8.821507e-01  -8.156198e-02  -7.980679e-01  -4.560518e-01  -3.938329e-01  -1.219608e+00   3.240893e+00   6.891321e+00   4.196220e-01  -7.603928e-01   4.957016e-01   8.822944e-01   2.133879e-01  -4.195499e-01  -2.132460e-01  -6.134072e-01  -7.604326e-01  -6.742572e-08  -5.460452e-09   2.231873e-07  -8.104934e-01   5.854080e-01  -1.994459e-02   5.662250e-01   7.743083e-01  -2.825525e-01   1.499653e-01   2.403001e-01   9.590445e-01
