VARIABLES=
 x y z nomin_den nomin_voidr fabric_xx fabric_yy fabric_zz fabric_xy fabric_xz fabric_yz sigma_xx sigma_yy sigma_zz sigma_xy sigma_xz sigma_yz sigmaDot_xx sigmaDot_yy sigmaDot_zz sigmaDot_xy sigmaDot_xz sigmaDot_yz Oldro_xx Oldro_xy Oldro_xz Oldro_yx Oldro_yy Oldro_yz Oldro_zx Oldro_zy Oldro_zz Trues_xx Trues_xy Trues_xz Trues_yx Trues_yy Trues_yz Trues_zx Trues_zy Trues_zz F_xX F_xY F_xZ F_yX F_yY F_yZ F_zX F_zY F_zZ R_xX R_xY R_xZ R_yX R_yY R_yZ R_zX R_zY R_zZ U_xX U_yY U_zZ U_xY U_xZ U_yZ Green_xx Green_yy Green_zz Green_xy Green_xz Green_yz Green_vol Green_shr Euler_xx Euler_yy Euler_zz Euler_xy Euler_xz Euler_yz Euler_vol Euler_shr l_xx l_xy l_xz l_yx l_yy l_yz l_zx l_zy l_zz d_xx d_yy d_zz d_xy d_xz d_yz w_xy w_xz w_yz norm_sigma norm_sigmaDot norm_Oldro norm_Trues norm_F norm_U norm_l norm_d norm_w p q sigma_1 sigma_2 sigma_3 sigma_1_v1 sigma_1_v2 sigma_1_v3 sigma_2_v1 sigma_2_v2 sigma_2_v3 sigma_3_v1 sigma_3_v2 sigma_3_v3 sigmaDot_1 sigmaDot_2 sigmaDot_3 sigmaDot_1_v1 sigmaDot_1_v2 sigmaDot_1_v3 sigmaDot_2_v1 sigmaDot_2_v2 sigmaDot_2_v3 sigmaDot_3_v1 sigmaDot_3_v2 sigmaDot_3_v3 d_1 d_2 d_3 d_1_v1 d_1_v2 d_1_v3 d_2_v1 d_2_v2 d_2_v3 d_3_v1 d_3_v2 d_3_v3
ZONE T="stress" N=27, E=8, DATAPACKING=BLOCK, VARLOCATION=([4,5,6,7,8,9,10,11,12,13,14,15,16,17,18,19,20,21,22,23,24,25,26,27,28,29,30,31,32,33,34,35,36,37,38,39,40,41,42,43,44,45,46,47,48,49,50,51,52,53,54,55,56,57,58,59,60,61,62,63,64,65,66,67,68,69,70,71,72,73,74,75,76,77,78,79,80,81,82,83,84,85,86,87,88,89,90,91,92,93,94,95,96,97,98,99,100,101,102,103,104,105,106,107,108,109,110,111,112,113,114,115,116,117,118,119,120,121,122,123,124,125,126,127,128,129,130,131,132,133,134,135,136,137,138,139,140,141,142,143,144,145,146]=CELLCENTERED), ZONETYPE=FEBRICK, STRANDID=4, SOLUTIONTIME=15
   0.000000e+00   0.000000e+00   0.000000e+00   0.000000e+00   0.000000e+00   0.000000e+00   0.000000e+00   0.000000e+00   0.000000e+00   1.000000e-02   1.000000e-02   1.000000e-02   1.000000e-02   1.000000e-02   1.000000e-02   1.000000e-02   1.000000e-02   1.000000e-02   2.000000e-02   2.000000e-02   2.000000e-02   2.000000e-02   2.000000e-02   2.000000e-02   2.000000e-02   2.000000e-02   2.000000e-02
   0.000000e+00   0.000000e+00   0.000000e+00   1.000000e-02   1.000000e-02   1.000000e-02   2.000000e-02   2.000000e-02   2.000000e-02   0.000000e+00   0.000000e+00   0.000000e+00   1.000000e-02   1.000000e-02   1.000000e-02   2.000000e-02   2.000000e-02   2.000000e-02   0.000000e+00   0.000000e+00   0.000000e+00   1.000000e-02   1.000000e-02   1.000000e-02   2.000000e-02   2.000000e-02   2.000000e-02
   0.000000e+00   1.370315e-02   2.740629e-02   0.000000e+00   1.370315e-02   2.740629e-02   0.000000e+00   1.370315e-02   2.740629e-02   0.000000e+00   1.370315e-02   2.740629e-02   0.000000e+00   1.370315e-02   2.740629e-02   0.000000e+00   1.370315e-02   2.740629e-02   0.000000e+00   1.370315e-02   2.740629e-02   0.000000e+00   1.370315e-02   2.740629e-02   0.000000e+00   1.370315e-02   2.740629e-02
   1.589155e+03   4.393728e+02   1.521601e+03   5.048232e+02   1.708235e+03   4.732353e+02   1.618647e+03   5.812929e+02
   6.675533e-01   5.031325e+00   7.415870e-01   4.249362e+00   5.513086e-01   4.599751e+00   6.371700e-01   3.558804e+00
   3.295121e-01   2.836316e-01   3.393432e-01   3.106811e-01   3.090921e-01   3.340789e-01   3.239728e-01   2.820720e-01
   3.038805e-01   2.563213e-01   3.022962e-01   2.774410e-01   3.153576e-01   3.226682e-01   3.263763e-01   3.166581e-01
   3.630613e-01   4.600471e-01   3.583606e-01   3.926471e-01   3.755503e-01   3.432529e-01   3.496509e-01   4.012699e-01
  -7.596733e-03  -1.226888e-02   2.645414e-03   2.298935e-02   9.852283e-04   3.060819e-02  -8.651351e-03  -3.215168e-02
  -3.502614e-03  -2.112072e-02   6.815359e-03   9.330312e-03   4.019644e-03   1.156214e-02   2.888391e-03  -2.227393e-02
   2.160864e-03  -9.349158e-03   7.445153e-03   7.098522e-02  -4.803165e-03  -2.249029e-03   1.107328e-02   2.739509e-02
  -2.294541e+02  -4.761573e+01  -2.117644e+02  -5.836281e+01  -1.966887e+02  -5.101845e+01  -2.476093e+02   3.762763e+00
  -1.790312e+02  -2.488600e+01  -1.814583e+02  -5.455726e+01  -1.782263e+02  -7.128389e+01  -2.536536e+02   3.163027e-01
  -2.952089e+02  -7.662458e+01  -2.381573e+02  -7.274498e+01  -2.753147e+02  -8.075559e+01  -3.053316e+02  -1.340794e+01
  -2.425006e+01   1.733198e+00   2.680908e+00  -2.231129e+01   2.685683e+00  -1.417052e+01  -3.252225e+01  -1.967564e+01
   3.777863e+01  -1.800135e+00   1.639734e+01  -1.981590e+00  -5.824382e+00   9.136179e+00  -2.362848e-01   4.168886e+00
  -1.969246e+01   1.178774e+01  -1.215540e+01  -1.721466e+01  -8.850155e+00   9.552228e+00   1.164664e+01   5.694740e+00
   5.340851e+03   3.881266e+04  -1.879806e+04  -3.889480e+04  -8.585709e+04   1.200255e+06  -9.990442e+03  -9.570363e+04
  -1.161687e+05   1.723198e+05  -2.472417e+04  -4.144192e+04  -1.046178e+05  -5.315799e+04   1.866321e+04  -5.660931e+04
   2.046261e+05   5.265184e+05  -5.786799e+04   2.092594e+04   4.735048e+04   6.628608e+05  -2.350194e+04   6.995819e+03
  -6.208935e+04  -1.792176e+05   5.631033e+04  -1.795172e+05  -1.832953e+05  -2.924507e+06   4.852755e+04   3.160966e+04
  -3.252137e+05  -1.834500e+04   9.888998e+03  -2.654814e+05  -4.399621e+05   4.390396e+06  -3.990148e+04   4.630068e+04
  -3.155534e+03  -2.113333e+05   2.603362e+03   1.148374e+05   4.242592e+05   8.275097e+06   3.619496e+04  -3.117163e+05
   5.336105e+03   3.877396e+04  -1.880480e+04  -3.889071e+04  -8.585806e+04   1.200335e+06  -9.974486e+03  -9.566557e+04
   1.086195e+05  -1.361690e+05   5.656838e+03  -1.144917e+05   9.059427e+04   2.123338e+05   3.757217e+04  -4.445313e+04
  -6.576279e+05  -1.192304e+05   5.141876e+04  -7.179880e+05  -9.265093e+05   8.666528e+06  -1.412802e+05   9.476120e+04
  -2.328067e+05  -2.222817e+05   1.069613e+05  -2.444241e+05  -4.571836e+05  -6.061233e+06   5.957720e+04   1.076543e+05
  -1.161717e+05   1.722872e+05  -2.472338e+04  -4.129536e+04  -1.046177e+05  -5.372885e+04   1.872382e+04  -5.645563e+04
   2.626035e+04  -1.366830e+05  -2.970657e+04  -6.789593e+04  -1.022206e+05  -1.358657e+06   3.078607e+04   4.053770e+04
   7.187890e+03   8.243305e+04  -3.164311e+04   1.870471e+05   4.658823e+04   1.140110e+05   6.147853e+04  -2.331649e+03
  -3.258582e+04  -2.858234e+05   3.491292e+04   2.982029e+05   9.507332e+05   1.791195e+07   4.152746e+04  -6.637958e+05
   2.046210e+05   5.264416e+05  -5.786824e+04   2.063737e+04   4.735237e+04   6.586891e+05  -2.351842e+04   6.269812e+03
   5.342106e+03   3.882720e+04  -1.880169e+04  -3.873977e+04  -8.585833e+04   1.201787e+06  -9.998435e+03  -9.579098e+04
   1.086201e+05  -1.361704e+05   5.656801e+03  -1.144309e+05   9.059428e+04   2.127431e+05   3.756904e+04  -4.372293e+04
  -6.576288e+05  -1.192302e+05   5.141852e+04  -7.179849e+05  -9.265093e+05   8.666249e+06  -1.412803e+05   9.459114e+04
  -2.328060e+05  -2.222841e+05   1.069612e+05  -2.443695e+05  -4.571836e+05  -6.060836e+06   5.957404e+04   1.082357e+05
  -1.161671e+05   1.723151e+05  -2.472071e+04  -4.115426e+04  -1.046180e+05  -5.170035e+04   1.869928e+04  -5.646617e+04
   2.626089e+04  -1.366952e+05  -2.970638e+04  -6.785569e+04  -1.022206e+05  -1.358842e+06   3.078719e+04   4.036745e+04
   7.186905e+03   8.243692e+04  -3.164335e+04   1.870543e+05   4.658822e+04   1.137707e+05   6.147852e+04  -2.439491e+03
  -3.258534e+04  -2.858376e+05   3.491310e+04   2.982517e+05   9.507332e+05   1.791159e+07   4.152860e+04  -6.640052e+05
   2.046287e+05   5.265273e+05  -5.786473e+04   2.082551e+04   4.735199e+04   6.609871e+05  -2.354795e+04   6.716706e+03
   4.240854e+01   1.209777e+02  -2.927962e+02   3.121010e+02  -3.046378e+02  -1.618042e+02   4.480238e+02  -2.764343e+02
  -7.058519e+02  -5.721187e+02   1.102801e+01  -9.025538e+02   6.659733e+02   5.207932e+02  -2.887839e+02   1.091621e+03
   4.645608e-01   2.235939e-02  -8.726982e-01  -1.811078e+00  -1.414264e-02  -3.143810e-02   7.276680e-02  -1.123186e-02
  -5.303997e+02  -8.447332e+02  -1.837252e+02   5.172549e+02  -9.767364e+02  -9.576480e+02  -1.391326e+03  -1.044390e+02
  -5.939318e+02   8.285682e+02   4.118197e+02   1.336629e+01   3.986421e+02   2.398358e+02   9.154254e+02   3.512441e+02
   1.140361e+00  -3.048847e-02  -7.546584e-01   4.422756e+00   4.046870e-03  -7.258036e-02  -2.226033e-02  -2.940721e-02
  -9.303412e+01   5.437603e+02  -9.005795e+01   4.934662e+02   7.074961e+02   1.848633e+03  -4.739516e+02   1.824910e+02
   2.169930e+02  -1.538321e+03  -7.846485e+02  -6.418836e+02  -1.315262e+02  -5.391202e+02   5.952449e+02  -5.592017e+01
  -1.064973e-01   9.125433e-03  -3.893821e-01   3.846617e+00   1.523115e-02   7.295538e-02   5.070285e-02  -1.050538e-02
   3.864951e-01  -1.681356e-01  -8.216331e-01   4.650987e-02   4.125814e-02   1.612147e-01   3.085464e-01  -1.425481e-01
  -8.363570e-01  -3.944572e-01   6.314598e-03  -8.398704e-01   9.747273e-01   9.841733e-01  -5.352404e-02   9.428956e-01
  -3.887524e-01   9.034013e-01   5.699817e-01  -5.407907e-01  -2.195553e-01  -7.357081e-02   9.497022e-01   3.010448e-01
  -8.755459e-01  -9.844272e-01  -5.034357e-01   8.778128e-01  -7.686503e-01  -4.694320e-01  -9.230361e-01  -1.354918e-01
  -4.652092e-01   1.148988e-01   4.609387e-01   2.927395e-01   1.713536e-01   1.089601e-02   2.243466e-01   2.826987e-01
   1.303832e-01  -1.330468e-01  -7.308132e-01  -3.791416e-01   6.162911e-01  -8.829014e-01   3.125268e-01  -9.495912e-01
  -2.898981e-01  -5.131850e-02  -2.673414e-01   4.767406e-01   6.383373e-01   8.681264e-01   2.297902e-01   9.804703e-01
   2.899781e-01  -9.117027e-01  -8.874095e-01  -4.570792e-01   1.433342e-01  -1.768732e-01   9.730384e-01   1.761515e-01
  -9.120701e-01  -4.076329e-01  -3.755435e-01   7.508642e-01   7.562941e-01  -4.637590e-01  -1.981673e-02  -8.745646e-02
   5.077504e+02   7.833327e+02   3.571411e+02   7.038241e+02   1.189821e+03   2.028313e+03   1.313571e+03   2.324829e+02
   9.295700e+02   1.723370e+03   8.861978e+02   1.055333e+03   6.985989e+02   6.105200e+02   8.000257e+02   1.118731e+03
   6.521788e-02   2.053607e-02   2.003222e-01   2.190850e+00   1.711837e-02   3.256051e-02   6.114508e-02   2.546230e-02
   1.843003e+02  -6.405271e+02  -6.616685e+00  -3.362565e+02  -3.628977e+02  -4.966516e+02  -7.972925e+02  -2.580273e+02
  -7.880149e-01   2.578596e-02   1.201058e+00   5.631957e+00   6.028483e-03   9.233775e-02   5.465004e-02  -4.714696e-03
  -9.499273e-01  -2.064259e-02  -7.820684e-03   1.057578e+00  -1.090863e-02  -4.463522e-02   4.044702e-02  -2.075439e-02
   1.458884e+05   5.119420e+05   6.379699e+04   3.042338e+05   7.736840e+05   2.180358e+06   1.180571e+06   6.031270e+04
   4.490334e+05   1.690138e+06   3.926947e+05   6.133978e+05   3.098671e+05   3.096982e+05   6.378577e+05   6.590680e+05
   2.637913e-01  -4.992436e-01   2.413649e-01   1.831862e+01  -4.997758e-01  -4.942106e-01  -4.958193e-01  -4.994493e-01
   1.324497e+05  -8.028053e+05  -4.113396e+03  -2.957610e+05  -3.426516e+05  -6.552902e+05  -8.425773e+05  -1.743250e+05
  -2.876191e+02   1.671083e+01   2.146197e+02   1.810314e+03   5.565817e+00   1.047305e+02   1.977097e+01   2.129497e+00
  -5.141586e+02  -2.604592e+01  -7.439630e+00  -3.876845e+02  -4.904332e+00  -3.655592e+01  -5.605469e+00  -1.100129e+01
   1.983073e+05   7.340266e+05   1.521640e+05   3.058833e+05   3.611835e+05   8.300184e+05   6.061428e+05   2.397934e+05
   3.055307e+05   1.364126e+06   2.433810e+05   4.919873e+05   5.989236e+05   1.558181e+06   1.188348e+06   4.663933e+05
  -1.826410e+01  -9.671942e+02  -3.757310e+00   4.681323e-01  -8.173983e+01  -2.050820e+00  -1.201862e+02  -6.940854e+01
  -1.561682e+00  -2.047812e+01  -6.399476e+00   4.833046e-01  -6.475815e+02  -3.672344e+02  -1.258042e+01  -6.949690e+02
  -1.027376e+02  -1.965178e+02  -1.321437e+00   4.383356e-01  -9.754723e+02  -1.009804e+02   4.460044e-01  -5.391162e+00
   6.219775e+00   1.424795e+02   5.419702e+00  -2.306410e-02   2.308639e+02  -3.062716e+01  -3.973193e+01   2.204977e+02
  -4.401319e+01   4.366382e+02   2.784674e+00   4.432901e-02   2.833087e+02  -1.608906e+01   2.552537e+00   2.029387e+01
   1.458914e+01  -6.428890e+01  -3.544990e+00   3.208404e-02  -7.953047e+02  -1.931782e+02   8.403418e-01  -6.400865e+01
  -4.085446e+01  -3.947300e+02  -3.826074e+00   4.632575e-01  -5.682645e+02  -1.567552e+02  -4.410687e+01  -2.565896e+02
   8.270893e+01   7.904601e+02   8.652144e+00   7.348264e-02   1.137529e+03   3.145104e+02   8.921373e+01   5.141791e+02
  -1.329813e-02  -3.784879e-01  -1.633852e-02   5.183565e-02  -2.624633e-03  -4.820082e-01   3.319209e-02  -8.566741e-01
  -3.434720e-03  -8.740519e-02   2.591071e-03  -5.657780e-02   2.812288e-03   1.606948e+00  -7.566682e-03  -3.599097e-01
  -2.016292e-02  -8.216108e-01  -5.913923e-03   1.428015e-01   5.949257e-03  -4.575285e+00   2.193958e-02  -5.490774e+00
  -1.502740e-02  -3.779182e-01  -8.262966e-03   1.036875e+00   9.247950e-04   5.310068e-01   1.831315e-01   3.673208e+00
  -4.620279e-03  -2.550268e-01   2.236129e-03  -4.683791e-01   4.550763e-04  -2.945352e+00   8.965936e-02  -6.603430e-01
  -1.756432e-02   9.002300e-01  -2.542959e-03   4.397372e+00  -8.378065e-03   8.689030e+00  -1.377937e-01  -7.654135e-01
  -3.441628e-03   2.109814e-01  -3.383516e-04  -2.109586e-01  -5.929267e-04  -1.882932e+00  -2.773098e-02  -3.800197e+00
  -1.257463e-02   1.382434e-01   1.458768e-03   8.117665e-01  -3.257945e-03   8.563084e+00   2.157241e-02  -8.377393e+00
  -8.235821e-03  -4.846208e-01  -6.060894e-04  -2.169797e+00   3.544060e-03  -2.502929e+01  -2.613106e-02  -3.181347e+01
  -1.329813e-02  -3.784879e-01  -1.633852e-02   5.183565e-02  -2.624633e-03  -4.820082e-01   3.319209e-02  -8.566741e-01
  -4.620279e-03  -2.550268e-01   2.236129e-03  -4.683791e-01   4.550763e-04  -2.945352e+00   8.965936e-02  -6.603430e-01
  -8.235821e-03  -4.846208e-01  -6.060894e-04  -2.169797e+00   3.544060e-03  -2.502929e+01  -2.613106e-02  -3.181347e+01
  -9.231062e-03  -2.326617e-01  -2.835948e-03   4.901485e-01   1.868542e-03   1.068978e+00   8.778243e-02   1.656649e+00
  -1.180228e-02  -3.053147e-01  -3.126137e-03  -3.407859e-02   2.678165e-03  -3.229109e+00  -2.895699e-03  -4.645486e+00
  -1.506947e-02   5.192367e-01  -5.420952e-04   2.604569e+00  -5.818005e-03   8.626057e+00  -5.811063e-02  -4.571403e+00
   5.796342e-03   1.452565e-01   5.427019e-03  -5.467263e-01   9.437467e-04   5.379708e-01  -9.534911e-02  -2.016559e+00
  -8.360647e-03  -5.162961e-01  -2.787786e-03   1.768800e-01   3.271092e-03  -1.346176e+00   2.483528e-02  -8.452884e-01
  -2.494846e-03   3.809933e-01  -2.000864e-03   1.792803e+00  -2.560060e-03   6.297313e-02  -7.968303e-02   3.805990e+00
   4.203078e+02   9.516141e+01   3.678831e+02   1.152400e+02   3.827401e+02   1.223794e+02   4.703879e+02   3.286806e+01
   7.454266e+05   7.055640e+05   1.467412e+05   8.488023e+05   1.418705e+06   2.089066e+07   1.799169e+05   6.909233e+05
   7.454319e+05   7.054549e+05   1.467409e+05   8.488365e+05   1.418702e+06   2.089178e+07   1.799342e+05   6.907947e+05
   7.454341e+05   7.055381e+05   1.467386e+05   8.488163e+05   1.418702e+06   2.089141e+07   1.799356e+05   6.910296e+05
   1.090801e+03   2.098610e+03   9.555034e+02   1.354733e+03   1.472109e+03   2.231617e+03   1.907055e+03   1.199485e+03
   1.090801e+03   2.098610e+03   9.555034e+02   1.354733e+03   1.472109e+03   2.231617e+03   1.907055e+03   1.199485e+03
   3.726461e-02   1.463794e+00   1.977343e-02   5.105794e+00   1.204042e-02   2.848757e+01   2.532204e-01   3.379712e+01
   3.419366e-02   1.130071e+00   1.756511e-02   4.356657e+00   1.042509e-02   2.841356e+01   1.789003e-01   3.322217e+01
   1.481366e-02   9.303946e-01   9.080500e-03   2.662457e+00   6.024052e-03   2.052105e+00   1.792073e-01   6.207508e+00
  -2.345648e+02  -4.970877e+01  -2.104600e+02  -6.188835e+01  -2.167432e+02  -6.768598e+01  -2.688648e+02  -3.109624e+00
   1.312365e+02   5.047158e+01   6.072900e+01   5.201064e+01   9.095637e+01   4.437216e+01   8.149722e+01   3.619569e+01
  -3.126905e+02  -8.001085e+01  -2.482816e+02  -9.132506e+01  -2.763117e+02  -9.474119e+01  -3.089395e+02  -2.138909e+01
  -2.296089e+02  -4.722520e+01  -2.040585e+02  -6.303858e+01  -1.967766e+02  -6.451731e+01  -2.805993e+02  -7.611929e+00
  -1.613949e+02  -2.189026e+01  -1.790399e+02  -3.130141e+01  -1.771414e+02  -4.379943e+01  -2.170557e+02   1.967215e+01
  -3.982440e-01   1.186359e-01  -4.176401e-01   4.389233e-01   6.435599e-02  -3.309465e-01  -1.536373e-01  -4.862874e-01
   5.471200e-02  -2.264379e-01   1.769268e-01   5.968012e-01   8.025505e-02  -5.923161e-01  -2.914921e-01  -5.799515e-01
   9.156464e-01   9.667737e-01   8.912203e-01   6.716953e-01   9.946946e-01   7.345992e-01   9.441546e-01   6.535907e-01
  -8.037207e-01   9.915275e-01  -9.084450e-01  -6.987929e-01   9.872210e-01   2.813168e-01  -6.683534e-01  -4.766730e-01
  -5.019018e-01  -2.485999e-02  -1.001400e-01  -2.431992e-01  -1.507337e-01   6.811413e-01  -6.731169e-01  -4.508190e-01
  -3.195742e-01  -1.274962e-01  -4.058320e-01   6.727128e-01  -5.171079e-02   6.759492e-01  -3.165713e-01  -7.546821e-01
  -4.420800e-01  -5.290396e-02  -1.744421e-02   5.648316e-01  -1.457840e-01  -9.007415e-01   7.278044e-01   7.323301e-01
   8.631924e-01  -9.737083e-01   9.791164e-01  -7.646453e-01  -9.853114e-01   4.303582e-01  -6.796661e-01  -6.785415e-01
  -2.438526e-01  -2.215701e-01  -2.025508e-01   3.102947e-01   8.893010e-02  -5.879283e-02  -9.140386e-02  -5.721960e-02
  -2.969275e+05  -1.477269e+05  -1.522590e+05  -5.099631e+05  -1.118141e+06  -1.861375e+07  -7.994310e+04  -6.992034e+05
   1.678273e+05   1.506660e+05  -3.439448e+04   1.578240e+05  -2.492024e+04   1.214343e+06  -4.021591e+04  -9.376153e+04
   2.228985e+05   7.347118e+05   8.526326e+04   2.927284e+05   9.999364e+05   1.920936e+07   1.053298e+05   6.476478e+05
  -6.089903e-01   7.135024e-01  -6.216618e-01   5.463344e-01  -3.460919e-01   2.221347e-01  -7.220850e-01   1.264578e-01
  -7.920269e-01   6.721723e-01   6.436000e-01   6.334734e-01  -7.201736e-01   7.136330e-01   1.513830e-01  -7.229422e-01
  -4.271121e-02   1.977337e-01  -4.464478e-01  -5.479327e-01   6.013073e-01  -6.643674e-01   6.750381e-01  -6.792370e-01
  -6.706605e-01   6.498720e-01   3.201919e-01   8.259676e-01  -9.010603e-01   9.471372e-01  -3.586136e-01  -9.866960e-01
   4.854258e-01  -5.294083e-01  -3.113668e-01  -2.989853e-01   7.660168e-02   3.840896e-03   7.525209e-01  -2.114360e-02
   5.608710e-01  -5.453377e-01  -8.947222e-01   4.778967e-01  -4.268752e-01   3.208059e-01  -5.523664e-01  -1.611953e-01
   4.234918e-01   2.618790e-01  -7.148522e-01  -1.389110e-01  -2.613631e-01  -2.314895e-01   5.915992e-01   1.021734e-01
  -3.702097e-01  -5.176014e-01  -6.991636e-01   7.136661e-01   6.895522e-01   7.005092e-01   6.409333e-01   6.905849e-01
   8.268007e-01   8.145601e-01  -1.251063e-02   6.865745e-01   6.754311e-01   6.750552e-01   4.890960e-01  -7.159980e-01
  -3.298033e-02  -9.221312e-01  -1.736230e-02  -4.083272e+00  -6.539538e-03  -2.841341e+01  -6.588643e-02  -3.306430e+01
  -1.981690e-03  -5.494027e-01  -7.667872e-06  -2.190566e-02  -2.023641e-04  -8.286308e-02  -3.678384e-03  -2.416638e+00
   8.807790e-03   3.533984e-01   2.661493e-03   1.518838e+00   8.116406e-03   3.962105e-02   1.662852e-01   2.150448e+00
   6.053361e-01   2.163738e-01   9.716800e-01  -7.652200e-02   6.284489e-01   1.208774e-01   4.408474e-01   1.348788e-01
   5.181136e-01  -5.515583e-01   1.457495e-01   5.896728e-01  -5.897553e-01  -3.229951e-01  -5.216714e-01   1.316513e-01
   6.042570e-01   8.055841e-01   1.859976e-01  -8.040090e-01  -5.071889e-01   9.386495e-01  -7.304194e-01   9.820772e-01
   7.934949e-01  -8.628657e-01   1.879648e-01  -9.648048e-01   7.715988e-01   9.298051e-01  -7.194370e-01   7.198339e-01
  -4.526208e-01  -4.940807e-01   2.788745e-04   1.596786e-01   5.551556e-01   3.679878e-01   2.812293e-01  -6.941220e-01
  -4.068171e-01  -1.065224e-01  -9.821757e-01   2.089366e-01   3.105440e-01   6.888445e-03  -6.350752e-01  -5.812419e-03
  -6.272180e-02   4.567769e-01   1.432035e-01  -2.515873e-01  -9.842385e-02   3.476365e-01   5.367159e-01  -6.809162e-01
  -7.257359e-01  -6.720623e-01  -9.893215e-01  -7.916999e-01   5.865074e-01  -8.719284e-01   8.054620e-01  -7.077165e-01
   6.851083e-01  -5.828269e-01   2.712481e-02  -5.567002e-01  -8.039414e-01  -3.448039e-01  -2.513305e-01   1.883894e-01
      10      13       4       1      11      14       5       2
      11      14       5       2      12      15       6       3
      13      16       7       4      14      17       8       5
      14      17       8       5      15      18       9       6
      19      22      13      10      20      23      14      11
      20      23      14      11      21      24      15      12
      22      25      16      13      23      26      17      14
      23      26      17      14      24      27      18      15
