     VARIABLES=
              x              y              z      nomin_den    nomin_voidr      fabric_xx      fabric_yy      fabric_zz      fabric_xy      fabric_xz      fabric_yz       sigma_xx       sigma_yy       sigma_zz       sigma_xy       sigma_xz       sigma_yz    sigmaDot_xx    sigmaDot_yy    sigmaDot_zz    sigmaDot_xy    sigmaDot_xz    sigmaDot_yz       Oldro_xx       Oldro_xy       Oldro_xz       Oldro_yx       Oldro_yy       Oldro_yz       Oldro_zx       Oldro_zy       Oldro_zz       Trues_xx       Trues_xy       Trues_xz       Trues_yx       Trues_yy       Trues_yz       Trues_zx       Trues_zy       Trues_zz           F_xX           F_xY           F_xZ           F_yX           F_yY           F_yZ           F_zX           F_zY           F_zZ           R_xX           R_xY           R_xZ           R_yX           R_yY           R_yZ           R_zX           R_zY           R_zZ           U_xX           U_yY           U_zZ           U_xY           U_xZ           U_yZ       Green_xx       Green_yy       Green_zz       Green_xy       Green_xz       Green_yz      Green_vol      Green_shr       Euler_xx       Euler_yy       Euler_zz       Euler_xy       Euler_xz       Euler_yz      Euler_vol      Euler_shr           l_xx           l_xy           l_xz           l_yx           l_yy           l_yz           l_zx           l_zy           l_zz           d_xx           d_yy           d_zz           d_xy           d_xz           d_yz           w_xy           w_xz           w_yz     norm_sigma  norm_sigmaDot     norm_Oldro     norm_Trues         norm_F         norm_U         norm_l         norm_d         norm_w              p              q        sigma_1        sigma_2        sigma_3     sigma_1_v1     sigma_1_v2     sigma_1_v3     sigma_2_v1     sigma_2_v2     sigma_2_v3     sigma_3_v1     sigma_3_v2     sigma_3_v3     sigmaDot_1     sigmaDot_2     sigmaDot_3  sigmaDot_1_v1  sigmaDot_1_v2  sigmaDot_1_v3  sigmaDot_2_v1  sigmaDot_2_v2  sigmaDot_2_v3  sigmaDot_3_v1  sigmaDot_3_v2  sigmaDot_3_v3            d_1            d_2            d_3         d_1_v1         d_1_v2         d_1_v3         d_2_v1         d_2_v2         d_2_v3         d_3_v1         d_3_v2         d_3_v3
ZONE I=2, J=2, K=2, DATAPACKING=POINT, STRANDID=5, SOLUTIONTIME=45
   5.000000e-03   5.000000e-03   5.253276e-03   1.575477e+03   6.820305e-01   3.407082e-01   3.072060e-01   3.520858e-01   6.666257e-03  -4.673799e-04   5.698009e-04  -3.170660e+02  -2.446867e+02  -3.734893e+02  -2.421396e+01   2.395715e+01  -2.607917e+01   1.776844e+01  -1.800138e+01  -6.320775e+00   9.718470e+00  -7.280515e+00  -6.719729e+00   1.309642e+01   1.194537e+01  -9.649173e+00   2.226434e+00  -1.878831e+01   1.297188e+00  -4.316512e+00  -1.422237e+01  -6.328511e+00   1.570542e+01   1.214462e+01  -9.846306e+00   2.425680e+00  -1.677489e+01   1.511781e+00  -4.513645e+00  -1.400778e+01  -3.255228e+00   5.030110e+02  -8.537817e+02  -2.696482e-03  -3.334197e+02  -1.004089e+03   2.820541e-03  -8.487842e+01   1.681931e+02   1.988086e-02   7.722841e-01  -6.103819e-01   1.761003e-01  -6.221225e-01  -7.827737e-01   1.513011e-02  -1.286115e-01   1.212407e-01   9.842559e-01   6.068116e+02   1.327499e+03   1.913568e-02  -5.632731e+01  -6.394079e-03   1.848408e-03   1.856960e+05   8.827127e+05  -4.997948e-01  -5.447726e+04  -1.992120e+00   1.406978e+00   3.561361e+05   5.410493e+05  -4.184950e+01   1.876510e-01  -1.322319e+03  -3.637002e+00  -2.366869e+02  -2.032683e+01  -4.546601e+02   9.103203e+02  -7.267059e-03  -1.006960e-03   3.124647e-04  -6.901050e-03  -9.567415e-04   2.966722e-04   1.030202e-04   1.464659e-05  -4.771503e-06  -7.267059e-03  -9.567415e-04  -4.771503e-06  -3.954005e-03   2.077425e-04   1.556594e-04   2.947045e-03   1.047223e-04   1.410128e-04   5.509786e+02   3.531025e+01   3.206109e+01   3.174674e+01   1.461786e+03   1.461786e+03   1.012721e-02   9.226517e-03   4.175147e-03  -3.117473e+02   1.342662e+02  -3.843472e+02  -3.207914e+02  -2.301034e+02  -2.920760e-01   1.263858e-01   9.480075e-01  -9.021232e-01  -3.655677e-01  -2.292028e-01   3.175929e-01  -9.221643e-01   2.207891e-01  -2.782136e+01   9.217500e-01   2.034589e+01   3.268510e-02  -8.322381e-01  -5.534540e-01  -3.606163e-01   5.066293e-01  -7.831237e-01   9.321414e-01   2.251810e-01  -2.835594e-01  -9.177548e-03  -3.525414e-07   9.493284e-04   9.006273e-01   4.337051e-01  -2.775701e-02  -4.790825e-02   3.560013e-02  -9.982171e-01  -4.319437e-01   9.003513e-01   5.284050e-02
   5.000000e-03   5.000000e-03   1.575983e-02   1.087368e+03   1.437076e+00   3.564787e-01   3.196542e-01   3.238671e-01  -1.130126e-02   2.350286e-02   3.392458e-04  -6.729634e+01  -7.683548e+01  -1.060188e+02   8.042300e+00   7.166459e-01   1.489451e+00  -1.990217e+01  -1.244744e+01  -3.638808e+00   1.338350e+01   2.551190e+01  -4.294434e+00  -1.990228e+01   1.056532e+01   2.587029e+01   1.620172e+01  -1.244748e+01  -5.685098e+00   2.515351e+01  -2.903772e+00  -3.638863e+00  -1.990219e+01   1.056531e+01   2.587029e+01   1.620171e+01  -1.244738e+01  -5.685100e+00   2.515351e+01  -2.903774e+00  -3.638733e+00   4.045324e+02  -1.217120e+03   1.976895e-02  -1.073970e+03   1.174091e+03  -1.298038e-03  -1.136228e+02  -8.644495e+02   2.675489e-02   6.245661e-03  -6.724524e-01  -7.401141e-01  -8.660895e-01   3.663227e-01  -3.401420e-01  -4.998499e-01  -6.431294e-01   5.801160e-01   9.894754e+02   1.804504e+03   1.331180e-03  -5.923744e+02  -1.212574e-02  -3.097603e-02   6.649840e+05   1.803571e+06  -4.994458e-01  -8.275409e+05   3.175634e+00  -2.435672e+01   8.228515e+05   1.422080e+06  -1.548284e+05  -3.270283e+04  -9.510758e+04  -7.115772e+04   1.213486e+05   5.577053e+04  -9.421294e+04   1.884269e+05  -7.369926e-07   2.524212e-07   3.942388e-07  -3.288265e-08  -2.266825e-07  -3.966782e-08  -6.473959e-07  -3.302997e-08  -2.646271e-07  -7.369926e-07  -2.266825e-07  -2.646271e-07   1.097693e-07  -1.265785e-07  -3.634889e-08   1.426519e-07   5.208173e-07  -3.318922e-09   1.476730e+02   4.776107e+01   4.776114e+01   4.776107e+01   2.221961e+03   2.221961e+03   1.143057e-06   8.505033e-07   7.636901e-07  -8.338355e+01   3.772642e+01  -1.060972e+02  -8.138054e+01  -6.267289e+01   8.386385e-03   4.853402e-02  -9.987863e-01  -4.969697e-01   8.669375e-01   3.795425e-02   8.677274e-01   4.960483e-01   3.139041e-02  -4.510373e+01  -7.600424e+00   1.671573e+01  -7.618510e-01   4.216960e-01   4.916864e-01   1.740760e-01   8.644297e-01  -4.716554e-01  -6.239235e-01  -2.737403e-01  -7.319738e-01  -7.860225e-07  -2.832640e-07  -1.590156e-07   9.596651e-01  -1.739804e-01   2.208478e-01  -6.534520e-02   6.259866e-01   7.770913e-01  -2.734464e-01  -7.601787e-01   5.893687e-01
   5.000000e-03   1.500000e-02   5.253276e-03   1.524977e+03   7.377309e-01   3.310358e-01   3.223818e-01   3.465825e-01  -4.756029e-04   1.723098e-03   1.540881e-02  -2.982872e+02  -2.536351e+02  -2.910052e+02  -7.155266e+00   2.961767e+01  -3.486801e+01   4.093288e+00   5.898425e+00   1.758057e+00  -4.907708e+00   4.903789e-01  -6.700402e-01   3.055400e+00  -3.198770e+00   1.308471e-01  -3.586271e+00   5.979483e+00  -4.153430e-01   2.722896e-01  -6.992616e-01   1.776943e+00   3.635671e+00  -3.184851e+00   7.323061e-02  -3.572352e+00   6.472890e+00  -3.475125e-01   2.146731e-01  -6.314316e-01   2.343048e+00  -4.851169e+02   4.748093e+01  -1.251550e+00  -3.665840e+02   1.904533e+02  -1.065217e+00  -5.600404e+02  -5.987954e+02  -5.651599e-01  -6.540505e-01   2.627177e-01  -7.093641e-01  -5.545898e-01   4.712007e-01   6.858572e-01  -5.144397e-01  -8.419913e-01   1.624885e-01   8.087017e+02   6.063963e+02   6.538634e-02   1.713657e+02   1.700076e+00  -3.548756e-01   3.416832e+05   1.985409e+05   1.010235e+00   1.212494e+05   6.570760e+02   3.805817e+01   1.800751e+05   2.426088e+05  -6.694585e+01  -6.323767e+01  -3.064764e+00   6.556554e+01   1.550576e+01  -1.507348e+01  -4.441609e+01   8.983218e+01  -1.852266e-03  -1.907654e-05  -1.137823e-03   5.369829e-03  -1.213361e-04   9.430212e-04  -3.714648e-05   3.417600e-06   2.825945e-05  -1.852266e-03  -1.213361e-04   2.825945e-05   2.675376e-03  -5.874845e-04   4.732194e-04  -2.694453e-03  -5.503380e-04   4.698018e-04   4.922178e+02   1.021336e+01   8.490784e+00   9.169633e+00   1.039449e+03   1.039449e+03   5.870874e-03   4.347394e-03   3.945545e-03  -2.809758e+02   9.030069e+01  -3.296226e+02  -2.873638e+02  -2.259410e+02  -6.263067e-01   2.756371e-01   7.292215e-01  -7.181258e-01  -5.680039e-01  -4.020782e-01  -3.033730e-01   7.754971e-01  -5.536868e-01  -1.893778e-01   1.649399e+00   1.028975e+01   7.622709e-01   6.453654e-01   4.946306e-02   1.115379e-01  -5.569705e-02  -9.921981e-01   6.375754e-01  -7.618408e-01   1.144390e-01  -3.941689e-03   1.704593e-04   1.825888e-03   7.937486e-01  -5.789567e-01   1.864731e-01  -1.637097e-01   9.191153e-02   9.822176e-01  -5.858005e-01  -8.101613e-01  -2.182617e-02
   5.000000e-03   1.500000e-02   1.575983e-02   1.197247e+03   1.213411e+00   3.401522e-01   3.265421e-01   3.333057e-01   1.693462e-02   1.974685e-02   1.287607e-03  -1.009657e+02  -8.771651e+01  -1.334548e+02  -1.022839e+01  -9.288199e+00  -1.427562e+00   2.182306e+00   6.709409e+00  -4.928167e+00  -7.522436e+00  -4.305860e+00   2.485367e+00   2.182306e+00  -7.757643e+00  -4.600351e+00  -7.287250e+00   6.709429e+00   2.264593e+00  -4.011412e+00   2.706156e+00  -4.928196e+00   2.182303e+00  -7.757644e+00  -4.600351e+00  -7.287250e+00   6.709426e+00   2.264593e+00  -4.011413e+00   2.706156e+00  -4.928200e+00  -5.269754e+02  -1.399096e+02  -2.413087e-02  -8.113260e+02   1.189471e+03   6.075451e-03   4.252090e+02  -6.316141e+02   1.807119e-02  -8.711671e-01  -4.909214e-01  -8.007794e-03  -4.370550e-01   7.679403e-01   4.682420e-01   2.237205e-01  -4.114168e-01   8.835640e-01   9.088057e+02   1.241984e+03   1.900507e-02  -5.392846e+02   2.240961e-02   9.077155e-03   5.583773e+05   9.166755e+05  -4.995271e-01  -5.799439e+05   7.735618e+00  -4.056523e-01   4.916841e+05   8.561500e+05   4.122355e-01  -3.030422e+02  -1.080333e+03   5.161361e+00   9.739439e+00  -5.727813e+02  -4.609876e+02   9.229752e+02   1.821281e-08  -6.398966e-08  -1.284966e-07  -6.505446e-08   1.194101e-07   8.123052e-08  -2.612454e-08  -2.601770e-08  -1.072888e-07   1.821281e-08   1.194101e-07  -1.072888e-07  -6.452206e-08  -7.731058e-08   2.760641e-08   5.324021e-10  -5.118604e-08   5.362411e-08   1.899587e+02   1.539663e+01   1.539667e+01   1.539667e+01   1.717588e+03   1.717588e+03   2.426877e-07   2.188736e-07   1.048412e-07  -1.073790e+02   4.733168e+01  -1.362696e+02  -1.039231e+02  -8.194442e+01   2.767894e-01   8.645832e-02   9.570332e-01  -8.222407e-01  -4.941113e-01   2.824433e-01   4.973005e-01  -8.650890e-01  -6.567524e-02  -6.767654e+00  -2.499566e+00   1.323077e+01   4.523792e-01   6.602367e-02   8.893784e-01  -6.649761e-01  -6.395548e-01   3.857155e-01   5.942726e-01  -7.659051e-01  -2.454171e-01  -1.441433e-07   1.007930e-08   1.643981e-07   4.337160e-01   1.180650e-02   9.009723e-01  -7.557725e-01  -5.396739e-01   3.708908e-01   4.906101e-01  -8.417914e-01  -2.251422e-01
   1.500000e-02   5.000000e-03   5.253276e-03   1.713035e+03   5.469623e-01   3.322180e-01   3.198826e-01   3.478994e-01   4.587487e-03  -1.146351e-02   2.024704e-02  -2.893363e+02  -2.590196e+02  -3.699049e+02   1.823820e+01  -3.842746e+00  -4.827720e+01   4.250266e+01  -4.374824e+01   8.552272e+01   8.185086e+01  -9.310785e+01  -1.876509e+02   4.248832e+01   1.052281e+02  -7.826575e+01   5.873192e+01  -4.371303e+01  -1.594568e+02  -1.076669e+02  -2.157945e+02   8.552123e+01   4.247292e+01   1.052290e+02  -7.826595e+01   5.873289e+01  -4.372682e+01  -1.594593e+02  -1.076671e+02  -2.157970e+02   8.550154e+01  -7.253116e+00  -1.216514e+02  -2.038532e-02  -1.149847e+03   4.503925e+02   1.728044e-03   1.262890e+03  -8.441390e+02   1.515196e-02  -2.039291e-01  -4.244743e-01  -8.821760e-01  -8.860353e-01  -3.032137e-01   3.507178e-01   4.163585e-01  -8.531606e-01   3.142651e-01   1.546100e+03   6.352589e+02   2.335123e-02  -7.257199e+02   8.934701e-03  -4.797977e-03   1.458546e+06   4.651111e+05  -4.996759e-01  -7.915277e+05   8.648067e+00  -4.766080e+00   6.412190e+05   1.255185e+06  -7.131130e+02  -1.122917e+02  -9.005958e+01   2.837069e+02   2.542135e+02  -1.010661e+02  -3.051547e+02   6.113095e+02  -1.183180e-06   4.427667e-04   3.251512e-04  -1.399685e-06   5.826779e-05   5.149200e-05   4.817802e-07   1.402425e-05  -3.850784e-06  -1.183180e-06   5.826779e-05  -3.850784e-06   2.206835e-04   1.628165e-04   3.275812e-05   2.220832e-04   1.623347e-04   1.873387e-05   5.412878e+02   3.395551e+02   3.395052e+02   3.395035e+02   1.961458e+03   1.961458e+03   5.550021e-04   3.949410e-04   3.899345e-04  -3.060869e+02   1.337393e+02  -3.880571e+02  -2.954784e+02  -2.347253e+02   2.901227e-02  -3.538377e-01  -9.348568e-01  -9.469828e-01   2.896500e-01  -1.390194e-01   3.199715e-01   8.893266e-01  -3.266748e-01  -2.058019e+02  -1.288038e+01   3.029594e+02  -8.024727e-02  -7.865007e-01  -6.123537e-01  -9.023720e-01   3.182857e-01  -2.905494e-01   4.234207e-01   5.292551e-01  -7.352577e-01  -2.439142e-04  -1.319089e-05   3.103389e-04   7.475863e-01  -4.983697e-01  -4.390244e-01   7.371906e-02  -5.946684e-01   8.005842e-01   6.600608e-01   6.308702e-01   4.078266e-01
   1.500000e-02   5.000000e-03   1.575983e-02   1.115058e+03   1.376559e+00   3.330019e-01   3.613500e-01   3.056481e-01   1.096332e-02   3.956542e-03   2.199391e-03  -1.122962e+02  -1.197023e+02  -1.337204e+02  -1.814427e+00   1.047950e+00   1.542166e+01   2.561984e+01  -2.750263e+00   1.648374e+01   2.043423e+01   2.835482e+01  -2.258960e+01   2.561988e+01   1.698345e+01   1.920853e+01   2.388531e+01  -2.750396e+00  -2.804097e+01   3.750191e+01  -1.713868e+01   1.648361e+01   2.562000e+01   1.698345e+01   1.920853e+01   2.388531e+01  -2.750273e+00  -2.804099e+01   3.750190e+01  -1.713869e+01   1.648375e+01  -1.124083e+03   1.271325e+03   1.067151e+01   5.422837e+02  -2.595663e+02  -1.056540e+01   1.155394e+03   5.020247e+02   3.861076e+00  -5.138166e-01   8.180652e-01  -2.583831e-01   3.000325e-01  -1.108089e-01  -9.474713e-01   8.037244e-01   5.643498e-01   1.885107e-01   1.668894e+03   1.352107e+03   7.980928e+00  -3.276168e+02  -5.549919e+00   1.207973e+01   1.446285e+06   9.678349e+05   1.197083e+02  -4.948988e+05  -6.632021e+03   9.123866e+03   8.047466e+05   1.024922e+06   4.994273e-01   4.927722e-01   4.997233e-01  -2.034181e-03   3.976825e-04   1.413318e-03   4.973076e-01   5.384273e-03   2.084497e-07   1.849379e-06   3.447486e-06  -1.815791e-07  -6.570168e-07  -8.000948e-07  -2.732067e-07  -1.128057e-06  -5.827190e-07   2.084497e-07  -6.570168e-07  -5.827190e-07   8.338997e-07   1.587140e-06  -9.640760e-07   1.015479e-06   1.860346e-06   1.639812e-07   2.128489e+02   6.819026e+01   6.819083e+01   6.819091e+01   2.197381e+03   2.197381e+03   4.259145e-06   3.017013e-06   3.006318e-06  -1.219063e+02   3.289116e+01  -1.437615e+02  -1.125188e+02  -1.094386e+02  -5.916242e-02  -5.418580e-01   8.383852e-01  -9.427288e-01  -2.458570e-01  -2.254259e-01  -3.282717e-01   8.037065e-01   4.962797e-01  -3.940979e+01   1.910977e+01   5.965333e+01  -5.502621e-01   6.199938e-01   5.593026e-01   3.156022e-01   7.745706e-01  -5.481201e-01  -7.730504e-01  -1.250926e-01  -6.218882e-01  -2.640417e-06   1.580684e-07   1.451063e-06  -5.246593e-01   5.403469e-01   6.578434e-01   2.999905e-01   8.405218e-01  -4.511417e-01  -7.967047e-01  -3.934891e-02  -6.030865e-01
   1.500000e-02   1.500000e-02   5.253276e-03   1.596827e+03   6.595413e-01   3.123526e-01   3.305754e-01   3.570721e-01  -2.503792e-03   9.989599e-03   2.192518e-02  -3.135330e+02  -3.481458e+02  -3.547306e+02  -4.046648e+01   1.803939e+01   2.110724e+01   8.899230e+00   1.447015e+01   1.235317e+01   1.389344e+00  -6.912999e-01  -4.279580e+00   1.166383e+01   2.658587e+01   3.555572e+00   2.512975e+01   5.060038e+01  -3.625648e+01   2.237678e+00  -3.508187e+01   4.451195e+00   1.399410e+00   2.526121e+01   4.146087e+00   2.380484e+01   3.920281e+01  -3.556528e+01   2.828307e+00  -3.439104e+01  -7.161946e+00   5.952097e+02  -2.730032e+02   4.822209e-03  -1.270651e+03   1.077685e+03  -2.488066e-03  -8.328244e+02   7.762017e+02   1.001000e-02   8.213667e-01   5.222529e-01  -2.293657e-01  -5.402784e-01   5.833756e-01  -6.064422e-01  -1.829098e-01   6.220328e-01   7.613273e-01   1.327722e+03   9.689415e+02   8.023701e-03  -9.484607e+02   3.474124e-03   7.293481e-03   1.331211e+06   9.192121e+05  -4.999352e-01  -1.089148e+06  -1.152440e+00   1.885972e+00   7.501410e+05   1.483560e+06  -4.082447e+02  -2.855988e+03  -4.501138e+03  -1.080544e+03   1.356474e+03   3.585927e+03  -2.588457e+03   5.177914e+03   5.602386e-03  -3.566018e-03   1.274602e-02   7.161065e-02   3.758706e-02  -9.861573e-02  -5.603460e-03   1.632576e-02  -1.045153e-02   5.602386e-03   3.758706e-02  -1.045153e-02   3.402232e-02   3.571281e-03  -4.114498e-02  -3.758834e-02   9.174741e-03  -5.747074e-02   5.917425e+02   2.202833e+01   8.134794e+01   7.257915e+01   2.121520e+03   2.121520e+03   1.299218e-01   8.532158e-02   9.797903e-02  -3.388031e+02   9.324755e+01  -3.941581e+02  -3.356254e+02  -2.866259e+02  -4.663510e-01  -6.733022e-01   5.737428e-01   2.680495e-01   5.105383e-01   8.170068e-01  -8.430102e-01   5.348034e-01  -5.761177e-02   8.325851e+00   9.932713e+00   1.746398e+01  -8.699086e-01  -1.819065e-01  -4.584419e-01   4.680035e-01  -5.978049e-01  -6.508472e-01   1.556655e-01   7.807300e-01  -6.051685e-01  -4.365205e-02   3.148186e-03   7.324178e-02   4.284555e-01  -5.445968e-01  -7.209995e-01  -8.116918e-01   1.185853e-01  -5.719213e-01   3.969664e-01   8.302722e-01  -3.912362e-01
   1.500000e-02   1.500000e-02   1.575983e-02   1.193231e+03   1.220861e+00   3.295687e-01   3.120910e-01   3.583403e-01  -1.015338e-02  -9.363665e-03  -6.333301e-03  -7.720004e+01  -7.535134e+01  -1.001876e+02   4.765116e-01   1.207465e+01   4.101929e+00  -3.956905e+00   6.257796e+00  -6.341574e+00   5.010998e-01  -6.900272e-01   2.480098e+00  -3.956917e+00   9.693776e-01  -1.745752e-01   3.284648e-02   6.257810e+00   2.353187e+00  -1.205470e+00   2.607085e+00  -6.341585e+00  -3.956916e+00   9.693776e-01  -1.745753e-01   3.284648e-02   6.257810e+00   2.353187e+00  -1.205471e+00   2.607085e+00  -6.341585e+00  -6.868624e+02   6.663999e+02  -2.046772e-02  -8.595599e+02   5.223412e+02  -1.319020e-02   4.212961e+02  -3.533681e+02   1.196912e-02  -9.087297e-02   9.288243e-01   3.592039e-01  -9.737723e-01  -1.584258e-01   1.633060e-01   2.085898e-01  -3.349427e-01   9.188600e-01   9.873109e+02   6.545742e+02   1.491819e-03  -6.429081e+02   1.720085e-02  -2.093021e-02   6.940563e+05   4.208986e+05  -4.996319e-01  -5.277906e+05   1.521941e+01  -1.237949e+01   3.716515e+05   7.310363e+05  -2.902842e+04  -5.997122e+03  -1.899086e+05  -1.319487e+04  -7.424862e+04  -3.374912e+04  -7.497805e+04   1.499571e+05  -7.000443e-08  -2.345562e-08   1.506996e-08   2.455674e-07   1.195237e-07   4.021154e-07   1.641694e-08   1.224866e-08  -5.372476e-08  -7.000443e-08   1.195237e-07  -5.372476e-08   1.110559e-07   1.574345e-08   2.071820e-07  -1.345115e-07  -6.734893e-10   1.949334e-07   1.483271e+02   1.047812e+01   1.047816e+01   1.047816e+01   1.493289e+03   1.493289e+03   4.952473e-07   3.648071e-07   3.349413e-07  -8.424632e+01   3.260203e+01  -1.057876e+02  -7.598092e+01  -7.097042e+01  -3.847407e-01  -1.173635e-01   9.155329e-01  -4.633650e-01   8.824020e-01  -8.160669e-02  -7.982904e-01  -4.556233e-01  -3.938781e-01  -7.284727e+00  -3.535759e+00   6.779802e+00   3.366556e-01  -1.787898e-01   9.244983e-01  -9.414348e-01  -8.378975e-02   3.266188e-01   1.906737e-02  -9.803130e-01  -1.965272e-01  -2.113046e-07  -7.946620e-08   2.865653e-07  -3.745342e-01   5.791780e-01  -7.240697e-01  -8.850703e-01   9.436065e-03   4.653617e-01   2.763596e-01   8.151465e-01   5.090791e-01
