     VARIABLES=
              x              y              z      nomin_den    nomin_voidr      fabric_xx      fabric_yy      fabric_zz      fabric_xy      fabric_xz      fabric_yz       sigma_xx       sigma_yy       sigma_zz       sigma_xy       sigma_xz       sigma_yz    sigmaDot_xx    sigmaDot_yy    sigmaDot_zz    sigmaDot_xy    sigmaDot_xz    sigmaDot_yz       Oldro_xx       Oldro_xy       Oldro_xz       Oldro_yx       Oldro_yy       Oldro_yz       Oldro_zx       Oldro_zy       Oldro_zz       Trues_xx       Trues_xy       Trues_xz       Trues_yx       Trues_yy       Trues_yz       Trues_zx       Trues_zy       Trues_zz           F_xX           F_xY           F_xZ           F_yX           F_yY           F_yZ           F_zX           F_zY           F_zZ           R_xX           R_xY           R_xZ           R_yX           R_yY           R_yZ           R_zX           R_zY           R_zZ           U_xX           U_yY           U_zZ           U_xY           U_xZ           U_yZ       Green_xx       Green_yy       Green_zz       Green_xy       Green_xz       Green_yz      Green_vol      Green_shr       Euler_xx       Euler_yy       Euler_zz       Euler_xy       Euler_xz       Euler_yz      Euler_vol      Euler_shr           l_xx           l_xy           l_xz           l_yx           l_yy           l_yz           l_zx           l_zy           l_zz           d_xx           d_yy           d_zz           d_xy           d_xz           d_yz           w_xy           w_xz           w_yz     norm_sigma  norm_sigmaDot     norm_Oldro     norm_Trues         norm_F         norm_U         norm_l         norm_d         norm_w              p              q        sigma_1        sigma_2        sigma_3     sigma_1_v1     sigma_1_v2     sigma_1_v3     sigma_2_v1     sigma_2_v2     sigma_2_v3     sigma_3_v1     sigma_3_v2     sigma_3_v3     sigmaDot_1     sigmaDot_2     sigmaDot_3  sigmaDot_1_v1  sigmaDot_1_v2  sigmaDot_1_v3  sigmaDot_2_v1  sigmaDot_2_v2  sigmaDot_2_v3  sigmaDot_3_v1  sigmaDot_3_v2  sigmaDot_3_v3            d_1            d_2            d_3         d_1_v1         d_1_v2         d_1_v3         d_2_v1         d_2_v2         d_2_v3         d_3_v1         d_3_v2         d_3_v3
ZONE I=2, J=2, K=2, DATAPACKING=POINT, STRANDID=5, SOLUTIONTIME=23
   5.000000e-03   5.000000e-03   5.253389e-03   1.575443e+03   6.820665e-01   3.451678e-01   3.066314e-01   3.482008e-01   7.200725e-03  -2.201744e-03   2.731188e-03  -3.179781e+02  -2.312064e+02  -3.773943e+02  -2.679493e+01   2.012158e+01  -3.700071e+01   2.325297e+02   6.905097e+03  -1.338963e+04  -8.804420e+02  -6.225149e+03   7.828749e+03   2.431879e+02   8.867468e+02  -8.257779e+03  -2.638733e+03   6.907560e+03   6.005768e+03  -4.191522e+03   9.673435e+03  -1.339005e+04   2.383339e+02   8.863375e+02  -8.257472e+03  -2.639141e+03   6.904031e+03   6.005204e+03  -4.191215e+03   9.672869e+03  -1.339581e+04   5.037551e+02  -8.528041e+02  -2.712472e-03  -3.372531e+02  -1.007732e+03   2.804838e-03  -8.340844e+01   1.697303e+02   1.989189e-02   7.727738e-01  -6.101083e-01   1.748959e-01  -6.220390e-01  -7.827840e-01   1.779550e-02  -1.260485e-01   1.225439e-01   9.844261e-01   6.095868e+02   1.329939e+03   1.915761e-02  -5.357004e+01  -6.348189e-03   1.896951e-03   1.872324e+05   8.858034e+05  -4.997945e-01  -5.195024e+04  -1.985757e+00   1.431469e+00   3.576784e+05   5.424019e+05  -4.117658e+01   6.884193e-02  -1.319747e+03  -4.239004e+00  -2.345707e+02  -2.385863e+01  -4.536183e+02   9.082367e+02   1.710252e-02  -2.219424e-03   2.468599e-03   1.587649e-02  -1.294653e-03   2.987316e-02  -4.291319e-05  -1.451121e-04  -5.425767e-04   1.710252e-02  -1.294653e-03  -5.425767e-04   6.828532e-03   1.212843e-03   1.486403e-02  -9.047956e-03   1.255756e-03   1.500914e-02   5.495241e+02   2.120986e+04   2.121840e+04   2.122027e+04   1.464948e+03   1.464948e+03   3.807858e-02   2.885385e-02   2.484820e-02  -3.088596e+02   1.539336e+02  -3.889623e+02  -3.243617e+02  -2.132548e+02  -1.995813e-01   1.918074e-01   9.609252e-01  -9.378446e-01  -3.215428e-01  -1.306053e-01   2.839275e-01  -9.272649e-01   2.440595e-01  -1.774086e+04  -6.638289e+02   1.215269e+04   1.648607e-01  -3.446361e-01   9.241466e-01  -9.309507e-01  -3.638794e-01   3.037530e-02   3.258095e-01  -8.653426e-01  -3.808286e-01  -1.629263e-02   9.899153e-03   2.165876e-02  -1.239821e-01   7.264039e-01  -6.759925e-01  -5.812404e-01   4.989773e-01   6.427918e-01   8.042314e-01   4.726088e-01   3.603510e-01
   5.000000e-03   5.000000e-03   1.576017e-02   1.087345e+03   1.437129e+00   3.464710e-01   3.330403e-01   3.204887e-01  -1.792909e-02   2.230456e-02  -4.789812e-03  -8.408657e+01  -9.070704e+01  -1.047641e+02   1.074566e+01   8.504545e-01  -2.230260e+00   4.745304e+04  -1.978221e+04   4.975239e+04  -5.509687e+04   3.058141e+04   2.384506e+04   4.744983e+04  -6.025521e+04   2.145154e+04  -4.993714e+04  -1.977949e+04   1.791209e+04   3.972240e+04   2.977991e+04   4.974338e+04   4.745370e+04  -6.025570e+04   2.145151e+04  -4.993764e+04  -1.977532e+04   1.791217e+04   3.972235e+04   2.978003e+04   4.974820e+04   4.067134e+02  -1.213876e+03   1.985874e-02  -1.077171e+03   1.162973e+03  -1.323834e-03  -1.152473e+02  -8.641136e+02   2.669368e-02   9.791202e-03  -6.727831e-01  -7.397750e-01  -8.671322e-01   3.627171e-01  -3.413473e-01  -4.979818e-01  -6.448249e-01   5.798404e-01   9.954231e+02   1.795707e+03   1.238965e-03  -5.900240e+02  -1.195059e-02  -3.105355e-02   6.694973e+05   1.786346e+06  -4.994457e-01  -8.234170e+05   3.213218e+00  -2.435600e+01   8.186142e+05   1.410650e+06  -1.786368e+05  -3.803438e+04  -1.097290e+05  -8.242845e+04   1.400064e+05   6.460300e+04  -1.088001e+05   2.176011e+05  -1.654077e-02   1.722916e-02   3.292387e-02  -1.135333e-02   1.297051e-02   2.730627e-02   2.168462e-02  -1.807305e-02  -4.242617e-02  -1.654077e-02   1.297051e-02  -4.242617e-02   2.937912e-03   2.730425e-02   4.616610e-03   1.429125e-02   5.619627e-03   2.268966e-02   1.628390e+02   1.203659e+05   1.203630e+05   1.203663e+05   2.216233e+03   2.216233e+03   7.276004e-02   6.158525e-02   3.874637e-02  -9.318591e+01   2.670501e+01  -1.058039e+02  -9.775397e+01  -7.599991e+01   1.929975e-01  -3.000411e-01  -9.341988e-01  -5.663035e-01   7.434556e-01  -3.557726e-01   8.012817e-01   5.977032e-01  -2.642925e-02  -6.454917e+04   5.111473e+04   9.085766e+04  -4.851139e-01  -7.902263e-01   3.744421e-01  -4.146103e-01   5.848680e-01   6.971568e-01  -7.699109e-01   1.829529e-01  -6.113636e-01  -5.977503e-02  -1.008907e-03   1.478752e-02   5.321284e-01   3.220185e-02  -8.460511e-01   8.041592e-01  -3.318612e-01   4.931492e-01   2.648912e-01   9.427784e-01   2.024882e-01
   5.000000e-03   1.500000e-02   5.253389e-03   1.524945e+03   7.377681e-01   3.292677e-01   3.179115e-01   3.528208e-01   5.592865e-03   6.745800e-03   1.743915e-02  -2.782542e+02  -2.387852e+02  -2.624947e+02  -3.086764e+00   3.439805e+01  -2.801115e+01   2.859933e+04  -2.014102e+03  -6.568698e+03   1.836347e+05  -1.030243e+05  -3.802805e+04   2.859610e+04   1.502535e+04  -1.936920e+05   3.522528e+05  -2.014371e+03  -6.527269e+04  -1.234877e+04  -1.078396e+04  -6.569822e+03   2.859806e+04   1.502537e+04  -1.936922e+05   3.522528e+05  -2.012684e+03  -6.527249e+04  -1.234901e+04  -1.078376e+04  -6.567967e+03  -4.846854e+02   4.776450e+01  -1.250631e+00  -3.693147e+02   1.877322e+02  -1.066101e+00  -5.606760e+02  -5.992377e+02  -5.651841e-01  -6.528954e-01   2.637693e-01  -7.100375e-01  -5.568284e-01   4.683443e-01   6.859998e-01  -5.134878e-01  -8.432552e-01   1.589056e-01   8.099941e+02   6.058324e+02   6.683916e-02   1.719814e+02   1.700382e+00  -3.525859e-01   3.428349e+05   1.983048e+05   1.010041e+00   1.217476e+05   6.583872e+02   3.940120e+01   1.803803e+05   2.434410e+05  -6.394895e+01  -6.031435e+01  -2.751544e+00   6.260528e+01   1.447614e+01  -1.406202e+01  -4.233828e+01   8.567656e+01  -4.138159e-03   7.020675e-04   1.359598e-02   1.387042e-02  -8.548110e-04   9.455479e-04   6.288267e-04   1.487207e-04  -2.074317e-03  -4.138159e-03  -8.548110e-04  -2.074317e-03   7.286245e-03   7.112405e-03   5.471343e-04  -6.584177e-03   6.483579e-03   3.984136e-04   4.553043e+02   4.089220e+05   4.089237e+05   4.089239e+05   1.040329e+03   1.040329e+03   2.003002e-02   1.516931e-02   1.308028e-02  -2.598447e+02   8.442841e+01  -3.093006e+02  -2.583899e+02  -2.118436e+02  -7.117875e-01   2.324718e-01   6.628087e-01  -6.049596e-01  -6.823919e-01  -4.103233e-01  -3.569067e-01   6.930355e-01  -6.263541e-01  -3.392899e+05  -7.286007e+03   3.665925e+05   6.916238e-01  -7.222543e-01   2.268841e-03   3.010588e-02   3.196741e-02   9.990354e-01   7.216302e-01   6.908884e-01  -4.385353e-02  -1.284421e-02  -2.033318e-03   7.810239e-03   7.595613e-01  -4.397321e-01  -4.792727e-01   5.715818e-02  -6.888727e-01   7.226253e-01  -6.479194e-01  -5.762726e-01  -4.981067e-01
   5.000000e-03   1.500000e-02   1.576017e-02   1.197222e+03   1.213458e+00   3.256254e-01   3.187163e-01   3.556583e-01   1.479734e-02   2.067617e-02   1.698774e-02  -9.115732e+01  -9.356128e+01  -1.146005e+02  -9.174644e+00  -5.744408e+00  -1.298980e+01   3.962319e+04  -6.766203e+04   4.317835e+04   1.206172e+05  -2.809757e+04   3.804555e+05   3.966789e+04  -5.498758e+04  -6.348080e+04   2.961543e+05  -6.762431e+04   4.744520e+04   7.431848e+03   7.132914e+05   4.326547e+04   3.958147e+04  -5.499579e+04  -6.348692e+04   2.961451e+05  -6.771301e+04   4.743260e+04   7.427080e+03   7.132794e+05   4.315682e+04  -3.717757e+02  -2.673725e+02  -2.403850e-02  -5.480716e+02   9.864172e+02   1.112243e-02   5.107630e+02  -6.852222e+02   1.418409e-02  -8.243155e-01  -5.315328e-01   1.948763e-01  -3.316619e-01   7.323737e-01   5.946673e-01   4.588075e-01  -4.255605e-01   7.799962e-01   7.225768e+02   1.156147e+03   1.299314e-02  -4.211427e+02   2.263419e-02   1.488684e-02   3.497387e+05   7.570177e+05  -4.995486e-01  -3.956054e+05   5.042875e+00   3.839670e+00   3.689187e+05   6.325068e+05  -1.120691e+02  -1.047077e+03  -1.801776e+03  -3.434018e+02  -4.504227e+02  -1.374054e+03  -9.869741e+02   1.974948e+03   2.268883e-01  -5.728886e-02   3.816858e-01  -3.700448e-01   3.614382e-01  -8.901978e-01   2.878756e-01   5.264018e-02   3.597327e-01   2.268883e-01   3.614382e-01   3.597327e-01  -2.136668e-01   3.347807e-01  -4.187788e-01   1.563780e-01   4.690513e-02  -4.714190e-01   1.754144e+02   7.835949e+05   7.834987e+05   7.834818e+05   1.487789e+03   1.487789e+03   1.214709e+00   9.888064e-01   7.055353e-01  -9.977303e+01   3.660823e+01  -1.230237e+02  -9.457233e+01  -8.172307e+01   2.722219e-01   4.548640e-01   8.479351e-01   7.042970e-01   5.062446e-01  -4.976767e-01   6.556378e-01  -7.326767e-01   1.825485e-01  -7.844849e+05   3.493092e+04   7.646935e+05  -2.578182e-01   7.329913e-01  -6.294868e-01  -9.232896e-01   5.084273e-03   3.840710e-01  -2.847212e-01  -6.802191e-01  -6.754524e-01  -1.041884e-01   7.155239e-02   9.806952e-01  -4.616790e-01   4.666341e-01   7.543906e-01  -7.581494e-01  -6.490801e-01  -6.248580e-02   4.605019e-01  -6.007892e-01   6.534450e-01
   1.500000e-02   5.000000e-03   5.253389e-03   1.712998e+03   5.469955e-01   3.369341e-01   3.195616e-01   3.435043e-01   6.421242e-03  -1.026254e-02   1.950002e-02  -2.876359e+02  -2.658892e+02  -3.729318e+02   1.535928e+01  -2.044660e+01  -4.970249e+01  -5.361093e+03   2.694872e+03   9.609089e+03   1.546355e+04  -3.343938e+04   4.253393e+04  -5.361233e+03  -7.638633e+03  -5.938230e+04   3.856576e+04   2.695041e+03   4.508846e+03  -7.496580e+03   8.056219e+04   9.609760e+03  -5.361286e+03  -7.638630e+03  -5.938230e+04   3.856576e+04   2.694992e+03   4.508837e+03  -7.496584e+03   8.056218e+04   9.609692e+03  -7.337062e+00  -1.215666e+02  -2.038366e-02  -1.149818e+03   4.503641e+02   1.728550e-03   1.262839e+03  -8.440798e+02   1.515230e-02  -2.039274e-01  -4.243685e-01  -8.822273e-01  -8.860441e-01  -3.032390e-01   3.506735e-01   4.163405e-01  -8.532042e-01   3.141705e-01   1.546057e+03   6.351935e+02   2.334958e-02  -7.256763e+02   8.933731e-03  -4.801983e-03   1.458449e+06   4.650380e+05  -4.996760e-01  -7.914411e+05   8.648477e+00  -4.766649e+00   6.411622e+05   1.255076e+06  -7.132967e+02  -1.122791e+02  -9.001782e+01   2.837276e+02   2.541876e+02  -1.010372e+02  -3.051979e+02   6.113957e+02  -2.325556e-04  -1.722320e-04  -2.919446e-04  -7.874295e-05  -4.269973e-04   3.951826e-03   1.894717e-04   3.462717e-04   8.440801e-04  -2.325556e-04  -4.269973e-04   8.440801e-04  -1.254875e-04  -5.123644e-05   2.149049e-03  -4.674452e-05  -2.407082e-04   1.802777e-03   5.465878e+02   1.084748e+05   1.084761e+05   1.084761e+05   1.961371e+03   1.961371e+03   4.103987e-03   3.197256e-03   2.572987e-03  -3.088190e+02   1.377069e+02  -3.941534e+02  -2.954704e+02  -2.368331e+02  -1.274740e-01  -3.449813e-01  -9.299130e-01  -9.070803e-01   4.197858e-01  -3.138908e-02   4.011929e-01   8.395045e-01  -3.664375e-01  -8.809805e+04   3.261364e+03   9.177956e+04   3.806485e-01  -6.989287e-01   6.054794e-01   8.960868e-01   1.171206e-01  -4.281486e-01  -2.283313e-01  -7.055362e-01  -6.708826e-01  -2.035224e-03  -2.348659e-04   2.454618e-03  -3.879224e-02  -8.011187e-01   5.972470e-01  -9.983130e-01   5.230714e-03  -5.782595e-02  -4.320142e-02   5.984826e-01   7.999701e-01
   1.500000e-02   5.000000e-03   1.576017e-02   1.115034e+03   1.376610e+00   3.395572e-01   3.489487e-01   3.114940e-01   1.062040e-02   6.647083e-03   1.169912e-03  -1.247139e+02  -1.223240e+02  -1.251108e+02  -6.604728e+00   7.065119e+00   1.667170e+01   1.364396e+04  -5.960800e+03   5.226287e+04   2.681663e+05   5.459780e+04  -1.315079e+05   1.364427e+04  -2.123149e+03   1.322429e+05   5.384553e+05  -5.960347e+03   2.366368e+04  -2.304706e+04  -2.866793e+05   5.226285e+04   1.364386e+04  -2.123171e+03   1.322429e+05   5.384553e+05  -5.960746e+03   2.366373e+04  -2.304704e+04  -2.866792e+05   5.226244e+04  -1.112454e+03   1.260254e+03   1.057850e+01   5.083163e+02  -2.375581e+02  -1.045411e+01   1.179035e+03   4.754243e+02   3.786063e+00  -5.084263e-01   8.273221e-01  -2.388323e-01   2.820698e-01  -1.020434e-01  -9.539517e-01   8.135965e-01   5.523815e-01   1.814810e-01   1.668240e+03   1.329493e+03   8.133329e+00  -3.209509e+02  -5.246847e+00   1.190995e+01   1.443031e+06   9.353512e+05   1.172636e+02  -4.810939e+05  -6.309092e+03   8.807521e+03   7.928331e+05   1.011469e+06   4.995269e-01   4.929501e-01   4.997538e-01  -1.825977e-03   3.409140e-04   1.316579e-03   4.974102e-01   5.179000e-03   1.318348e-03  -4.966489e-04   1.041814e-03  -8.973976e-04   1.980089e-03   6.043211e-04  -8.517862e-05   4.858596e-04  -3.581371e-05   1.318348e-03   1.980089e-03  -3.581371e-05  -6.970233e-04   4.783177e-04   5.450903e-04   2.003743e-04   5.634963e-04   5.923074e-05   2.165928e+02   6.274203e+05   6.274202e+05   6.274201e+05   2.181055e+03   2.181055e+03   2.899303e-03   2.771928e-03   8.499250e-04  -1.240496e+02   3.345704e+01  -1.450285e+02  -1.201206e+02  -1.069997e+02  -4.295126e-01  -6.127725e-01   6.633466e-01  -9.029897e-01   2.821996e-01  -3.239954e-01  -1.133934e-02   7.381553e-01   6.745356e-01  -5.934559e+05   2.454426e+04   6.288576e+05  -6.272173e-01   7.198993e-01   2.972264e-01  -4.715131e-01  -4.723663e-02  -8.805930e-01  -6.198983e-01  -6.924693e-01   3.690696e-01  -4.226950e-04   1.245112e-03   2.440207e-03  -3.639515e-01  -3.052116e-01   8.799916e-01  -7.882920e-01  -4.023060e-01  -4.655595e-01  -4.961200e-01   8.631314e-01   9.417597e-02
   1.500000e-02   1.500000e-02   5.253389e-03   1.596793e+03   6.595769e-01   3.067423e-01   3.353282e-01   3.579294e-01  -2.907107e-03   1.298009e-02   2.369159e-02  -3.216308e+02  -3.549704e+02  -3.509762e+02  -3.805950e+01   9.300877e+00   2.231347e+01   1.239469e+02   3.090088e+03   5.654677e+03   2.462933e+03  -1.785975e+03  -1.412804e+03   1.149305e+02   3.073698e+03  -2.722589e+03   2.014397e+03   3.052745e+03  -2.316626e+03  -8.266866e+02  -6.029755e+02   5.649766e+03   1.500587e+02   3.077856e+03  -2.723607e+03   2.018553e+03   3.091514e+03  -2.319064e+03  -8.276996e+02  -6.054116e+02   5.688099e+03   5.773250e+02  -2.553503e+02   4.649436e-03  -1.362754e+03   1.169839e+03  -3.390969e-03  -8.725518e+02   8.156224e+02   9.660426e-03   8.110762e-01   5.437236e-01  -2.156851e-01  -5.520135e-01   5.895182e-01  -5.897028e-01  -1.934851e-01   5.973550e-01   7.782869e-01   1.389339e+03   1.038017e+03   8.515433e-03  -1.010686e+03   3.773760e-03   6.299674e-03   1.475874e+06   1.049483e+06  -4.999368e-01  -1.226648e+06  -5.619650e-01   1.362569e+00   8.417854e+05   1.665961e+06  -3.203889e+02  -2.397458e+03  -4.176206e+03  -8.771990e+02   1.157695e+03   3.164738e+03  -2.298018e+03   4.597036e+03  -1.517008e-02   1.210387e-02   9.641149e-03   2.480158e-01  -8.697467e-02  -1.238011e-01   2.637112e-02  -1.222927e-02  -7.074184e-03  -1.517008e-02  -8.697467e-02  -7.074184e-03   1.300598e-01   1.800613e-02  -6.801519e-02  -1.179560e-01  -8.364985e-03  -5.578592e-02   5.972441e+02   8.238292e+03   8.281544e+03   8.326458e+03   2.247380e+03   2.247380e+03   2.928613e-01   2.271045e-01   1.849089e-01  -3.425258e+02   8.419412e+01  -3.932466e+02  -3.379844e+02  -2.963464e+02  -4.574212e-01  -7.411147e-01   4.914416e-01   3.468614e-01   3.601719e-01   8.660042e-01  -8.188120e-01   5.665908e-01   9.231380e-02  -8.697295e+02   3.672911e+03   6.065529e+03   9.001372e-01  -4.283619e-01   7.911421e-02   3.670288e-01   8.436324e-01   3.918855e-01   2.346122e-01   3.237135e-01  -9.166061e-01  -2.073701e-01   5.732316e-03   9.241885e-02  -5.523176e-01   7.729906e-01   3.121392e-01  -4.314538e-01   5.532049e-02  -9.004372e-01  -7.132972e-01  -6.320010e-01   3.029553e-01
   1.500000e-02   1.500000e-02   1.576017e-02   1.193205e+03   1.220909e+00   3.054868e-01   3.239180e-01   3.705952e-01  -8.512210e-03  -5.262737e-03  -5.378788e-03  -6.591795e+01  -8.174996e+01  -1.012288e+02  -4.649129e+00   3.898509e+00   9.466593e+00  -1.911222e+03  -2.601055e+04  -3.073066e+03  -3.800079e+03  -5.879308e+03  -2.605500e+03  -1.911535e+03  -5.232071e+03  -1.305087e+04  -2.370414e+03  -2.600999e+04   3.016687e+03   1.292549e+03  -8.210753e+03  -3.077860e+03  -1.910724e+03  -5.232015e+03  -1.305092e+04  -2.370356e+03  -2.600898e+04   3.016572e+03   1.292501e+03  -8.210870e+03  -3.076615e+03  -6.866933e+02   6.657254e+02  -2.063379e-02  -8.579025e+02   5.213829e+02  -1.313967e-02   4.198079e+02  -3.524266e+02   1.191436e-02  -9.190993e-02   9.284617e-01   3.598771e-01  -9.739595e-01  -1.590432e-01   1.615800e-01   2.072569e-01  -3.356549e-01   9.189017e-01   9.856843e+02   6.534718e+02   1.399388e-03  -6.420355e+02   1.716329e-02  -2.106702e-02   6.918910e+05   4.196170e+05  -4.996298e-01  -5.261982e+05   1.522169e+01  -1.239309e+01   3.705025e+05   7.288092e+05  -3.310065e+04  -6.669567e+03  -2.157588e+05  -1.485890e+04  -8.450966e+04  -3.793586e+04  -8.517635e+04   1.703537e+05  -2.460335e-03   1.986295e-03   8.057392e-04  -1.579986e-02   1.418480e-02   8.508791e-02  -4.170509e-06  -3.685148e-03  -2.402555e-02  -2.460335e-03   1.418480e-02  -2.402555e-02  -6.906783e-03   4.007844e-04   4.070138e-02   8.893078e-03   4.049549e-04   4.438653e-02   1.467255e+02   3.116449e+04   3.116332e+04   3.116234e+04   1.490979e+03   1.490979e+03   9.106181e-02   6.475664e-02   6.402210e-02  -8.296556e+01   3.639098e+01  -1.058658e+02  -7.845228e+01  -6.457862e+01   1.343925e-01   3.876959e-01  -9.119378e-01  -2.068530e-01  -8.890363e-01  -4.084436e-01  -9.690978e-01   2.435288e-01  -3.928372e-02  -2.878109e+04  -3.171106e+03   9.573594e+02   6.941350e-02   9.512126e-01   3.006266e-01  -8.124795e-01  -1.209527e-01   5.703047e-01   5.788426e-01  -2.838398e-01   7.644450e-01  -5.022723e-02  -2.848065e-03   4.077421e-02  -8.493153e-02  -5.387439e-01   8.381776e-01  -9.879594e-01  -6.364452e-02  -1.410167e-01  -1.293173e-01   8.400621e-01   5.268517e-01
