     VARIABLES=
              x              y              z      nomin_den    nomin_voidr      fabric_xx      fabric_yy      fabric_zz      fabric_xy      fabric_xz      fabric_yz       sigma_xx       sigma_yy       sigma_zz       sigma_xy       sigma_xz       sigma_yz    sigmaDot_xx    sigmaDot_yy    sigmaDot_zz    sigmaDot_xy    sigmaDot_xz    sigmaDot_yz       Oldro_xx       Oldro_xy       Oldro_xz       Oldro_yx       Oldro_yy       Oldro_yz       Oldro_zx       Oldro_zy       Oldro_zz       Trues_xx       Trues_xy       Trues_xz       Trues_yx       Trues_yy       Trues_yz       Trues_zx       Trues_zy       Trues_zz           F_xX           F_xY           F_xZ           F_yX           F_yY           F_yZ           F_zX           F_zY           F_zZ           R_xX           R_xY           R_xZ           R_yX           R_yY           R_yZ           R_zX           R_zY           R_zZ           U_xX           U_yY           U_zZ           U_xY           U_xZ           U_yZ       Green_xx       Green_yy       Green_zz       Green_xy       Green_xz       Green_yz      Green_vol      Green_shr       Euler_xx       Euler_yy       Euler_zz       Euler_xy       Euler_xz       Euler_yz      Euler_vol      Euler_shr           l_xx           l_xy           l_xz           l_yx           l_yy           l_yz           l_zx           l_zy           l_zz           d_xx           d_yy           d_zz           d_xy           d_xz           d_yz           w_xy           w_xz           w_yz     norm_sigma  norm_sigmaDot     norm_Oldro     norm_Trues         norm_F         norm_U         norm_l         norm_d         norm_w              p              q        sigma_1        sigma_2        sigma_3     sigma_1_v1     sigma_1_v2     sigma_1_v3     sigma_2_v1     sigma_2_v2     sigma_2_v3     sigma_3_v1     sigma_3_v2     sigma_3_v3     sigmaDot_1     sigmaDot_2     sigmaDot_3  sigmaDot_1_v1  sigmaDot_1_v2  sigmaDot_1_v3  sigmaDot_2_v1  sigmaDot_2_v2  sigmaDot_2_v3  sigmaDot_3_v1  sigmaDot_3_v2  sigmaDot_3_v3            d_1            d_2            d_3         d_1_v1         d_1_v2         d_1_v3         d_2_v1         d_2_v2         d_2_v3         d_3_v1         d_3_v2         d_3_v3
ZONE I=2, J=2, K=2, DATAPACKING=POINT, STRANDID=5, SOLUTIONTIME=52
   5.000000e-03   5.000000e-03   5.253276e-03   1.575477e+03   6.820305e-01   3.406670e-01   3.072845e-01   3.520486e-01   6.656299e-03  -4.453000e-04   6.072453e-04  -3.167814e+02  -2.444765e+02  -3.731290e+02  -2.420921e+01   2.398515e+01  -2.607956e+01   1.208874e+01   4.099328e+00  -6.803612e-01   5.324872e+00  -7.537323e+00   3.844481e+00   1.939507e+01   9.204378e+00  -8.910819e+00   9.295041e+00   5.262161e+00   3.478489e+00  -6.904904e+00   3.482977e+00  -6.905194e-01   1.534562e+01   8.894909e+00  -8.604212e+00   8.985573e+00   2.136991e+00   3.145110e+00  -6.598300e+00   3.149600e+00  -5.460266e+00   5.034087e+02  -8.521643e+02  -2.726680e-03  -3.381750e+02  -1.008294e+03   2.792675e-03  -8.298298e+01   1.698839e+02   1.989581e-02   7.728243e-01  -6.101351e-01   1.745786e-01  -6.220934e-01  -7.827286e-01   1.832252e-02  -1.254684e-01   1.227643e-01   9.844728e-01   6.098347e+02   1.330011e+03   1.916203e-02  -5.263542e+01  -6.340845e-03   1.920230e-03   1.873339e+05   8.858500e+05  -4.997945e-01  -5.105231e+04  -1.984030e+00   1.443859e+00   3.577278e+05   5.422972e+05  -4.100636e+01   4.312666e-02  -1.319264e+03  -4.354666e+00  -2.340483e+02  -2.455532e+01  -4.534090e+02   9.078181e+02   1.137456e-02   1.577091e-03  -4.892407e-04   1.020226e-02   1.414762e-03  -4.389755e-04   1.360096e-04   1.931797e-05  -6.219562e-06   1.137456e-02   1.414762e-03  -6.219562e-06   5.889676e-03  -1.766156e-04  -2.098288e-04  -4.312585e-03  -3.126251e-04  -2.291468e-04   5.504793e+02   1.911314e+01   2.695859e+01   2.381409e+01   1.465049e+03   1.465049e+03   1.544042e-02   1.417425e-02   6.123501e-03  -3.114623e+02   1.341707e+02  -3.840116e+02  -3.204981e+02  -2.298772e+02  -2.926402e-01   1.263803e-01   9.478342e-01  -9.018460e-01  -3.659746e-01  -2.296439e-01   3.178607e-01  -9.220036e-01   2.210745e-01  -6.566467e+00   6.071172e+00   1.600300e+01   4.101557e-01  -4.850599e-01   7.723271e-01  -1.087464e-01   8.147832e-01   5.694757e-01   9.055090e-01   3.175615e-01  -2.814394e-01  -1.328372e-03  -3.872301e-07   1.411186e-02   4.180118e-01  -9.042023e-01  -8.766031e-02   5.281780e-02  -7.214177e-02   9.959949e-01   9.069049e-01   4.209676e-01  -1.760187e-02
   5.000000e-03   5.000000e-03   1.575983e-02   1.087368e+03   1.437076e+00   3.564787e-01   3.196542e-01   3.238671e-01  -1.130125e-02   2.350287e-02   3.392483e-04  -6.730499e+01  -7.669266e+01  -1.060224e+02   8.003643e+00   7.303225e-01   1.511310e+00  -2.944669e+01  -6.544941e+00   3.456419e+00   1.236075e+01   2.277220e+01   4.644160e-01  -2.944682e+01   1.070823e+01   2.238565e+01   1.401333e+01  -6.544934e+00  -1.296823e+00   2.315877e+01   2.225620e+00   3.456392e+00  -2.944675e+01   1.070822e+01   2.238565e+01   1.401332e+01  -6.544858e+00  -1.296824e+00   2.315877e+01   2.225618e+00   3.456498e+00   4.045325e+02  -1.217120e+03   1.976895e-02  -1.073970e+03   1.174091e+03  -1.298042e-03  -1.136228e+02  -8.644495e+02   2.675489e-02   6.245677e-03  -6.724523e-01  -7.401141e-01  -8.660895e-01   3.663227e-01  -3.401420e-01  -4.998499e-01  -6.431295e-01   5.801160e-01   9.894754e+02   1.804504e+03   1.331182e-03  -5.923744e+02  -1.212574e-02  -3.097603e-02   6.649840e+05   1.803571e+06  -4.994458e-01  -8.275410e+05   3.175638e+00  -2.435673e+01   8.228515e+05   1.422080e+06  -1.548447e+05  -3.270628e+04  -9.511761e+04  -7.116523e+04   1.213614e+05   5.577641e+04  -9.422288e+04   1.884468e+05  -9.305045e-07   2.033384e-07   2.737451e-07   1.951109e-07   5.859910e-08  -2.518686e-07  -2.748609e-07   9.323474e-08  -1.259414e-07  -9.305045e-07   5.859910e-08  -1.259414e-07   1.992247e-07  -5.579054e-10  -7.931695e-08   4.113727e-09   2.743030e-07  -1.725517e-07   1.476016e+02   4.771802e+01   4.771812e+01   4.771807e+01   2.221961e+03   2.221961e+03   1.089570e-06   9.884825e-07   4.583299e-07  -8.334003e+01   3.774032e+01  -1.061029e+02  -8.124122e+01  -6.267599e+01   8.701385e-03   4.895469e-02  -9.987631e-01  -4.991593e-01   8.656730e-01   3.808248e-02   8.664665e-01   4.982105e-01   3.196874e-02  -4.491516e+01  -6.122524e+00   1.850247e+01   8.674257e-01  -2.934893e-01  -4.017917e-01  -9.706282e-02  -8.918099e-01   4.418754e-01  -4.880076e-01  -3.442951e-01  -8.020658e-01  -9.693769e-07  -1.502511e-07   1.217812e-07   9.813342e-01  -1.915250e-01  -1.736195e-02   7.381416e-02   2.917600e-01   9.536391e-01  -1.775802e-01  -9.371202e-01   3.004513e-01
   5.000000e-03   1.500000e-02   5.253276e-03   1.524977e+03   7.377309e-01   3.310573e-01   3.223509e-01   3.465918e-01  -4.751554e-04   1.455381e-03   1.546232e-02  -2.982720e+02  -2.536323e+02  -2.910293e+02  -7.145921e+00   2.963347e+01  -3.484752e+01  -1.443629e+00  -1.554845e+00   2.431678e+00  -1.348035e+00  -1.898165e-01  -2.203085e-01  -2.946615e+00   1.052300e+00   2.186501e+00   1.838373e+00  -1.677943e+00  -7.123788e-01   1.679926e+00  -7.134764e-01   2.505781e+00  -2.332990e+00   1.067001e+00   2.125537e+00   1.853074e+00  -1.156155e+00  -6.406884e-01   1.618962e+00  -6.417857e-01   3.104505e+00  -4.836403e+02   4.884379e+01  -1.250316e+00  -3.695773e+02   1.874743e+02  -1.066310e+00  -5.524974e+02  -5.912995e+02  -5.652088e-01  -6.535610e-01   2.624916e-01  -7.098988e-01  -5.572684e-01   4.677974e-01   6.860157e-01  -5.121621e-01  -8.439572e-01   1.594559e-01   8.050104e+02   5.995526e+02   6.596682e-02   1.664453e+02   1.700857e+00  -3.500024e-01   3.378738e+05   1.935832e+05   1.009884e+00   1.168912e+05   6.555318e+02   3.661590e+01   1.771527e+05   2.377841e+05  -6.576601e+01  -6.205574e+01  -2.868046e+00   6.438415e+01   1.493944e+01  -1.451518e+01  -4.356327e+01   8.812653e+01  -1.840190e-03   5.890417e-04   6.979443e-03   8.016048e-03  -3.505371e-04  -8.587089e-04   6.923533e-05   7.504269e-06   1.334629e-04  -1.840190e-03  -3.505371e-04   1.334629e-04   4.302545e-03   3.524339e-03  -4.256023e-04  -3.713503e-03   3.455104e-03  -4.331066e-04   4.922202e+02   3.828244e+00   5.557283e+00   5.380630e+00   1.030980e+03   1.030980e+03   1.084370e-02   8.108945e-03   7.199365e-03  -2.809779e+02   9.029138e+01  -3.296388e+02  -2.873329e+02  -2.259620e+02  -6.262536e-01   2.755011e-01   7.293185e-01  -7.181190e-01  -5.680212e-01  -4.020660e-01  -3.034987e-01   7.755328e-01  -5.535679e-01  -2.499778e+00  -5.520336e-01   2.485017e+00   6.891498e-01   7.184830e-01   9.409946e-02   7.169805e-01  -6.949170e-01   5.503874e-02  -1.049357e-01  -2.953755e-02   9.940403e-01  -6.805962e-03   3.545957e-04   4.394102e-03   7.458657e-01  -5.242140e-01  -4.109549e-01  -2.952177e-02  -6.423698e-01   7.658260e-01  -6.654418e-01  -5.590713e-01  -4.945973e-01
   5.000000e-03   1.500000e-02   1.575983e-02   1.197247e+03   1.213411e+00   3.400665e-01   3.266598e-01   3.332737e-01   1.720648e-02   2.003440e-02   1.380765e-03  -1.011379e+02  -8.793541e+01  -1.335939e+02  -1.035615e+01  -9.161659e+00  -1.333890e+00   1.396482e+00   3.648821e-01  -1.340889e+00  -2.636345e+00  -2.555687e+00   1.928404e+00   1.396475e+00  -2.810996e+00  -2.729463e+00  -2.461708e+00   3.648727e-01   1.964751e+00  -2.381928e+00   1.892087e+00  -1.340897e+00   1.396486e+00  -2.810995e+00  -2.729462e+00  -2.461707e+00   3.648820e-01   1.964751e+00  -2.381927e+00   1.892088e+00  -1.340883e+00  -5.672614e+02  -1.804599e+02  -2.399463e-02  -7.769343e+02   1.165484e+03   2.555386e-03   4.112032e+02  -6.684615e+02   1.618519e-02  -8.738196e-01  -4.842960e-01  -4.355154e-02  -4.406635e-01   7.508511e-01   4.919738e-01   2.055602e-01  -4.490879e-01   8.695200e-01   9.225778e+02   1.262699e+03   1.637553e-02  -4.933060e+02   2.316794e-02   6.270646e-03   5.472498e+05   9.188791e+05  -4.995779e-01  -5.390050e+05   9.140631e+00  -1.755422e+00   4.887095e+05   8.199037e+05  -3.030558e+00  -4.508518e+02  -1.409402e+03   3.991896e+01   7.055310e+01  -7.977230e+02  -6.210949e+02   1.243190e+03  -1.774606e-08  -1.138114e-07  -4.136219e-08   2.051382e-08  -5.846492e-08   1.896779e-07  -1.673028e-08  -1.202134e-07  -2.928170e-08  -1.774606e-08  -5.846492e-08  -2.928170e-08  -4.664878e-08  -2.904624e-08   3.473223e-08  -6.716259e-08  -1.231595e-08   1.549457e-07   1.902492e+02   6.197298e+00   6.197320e+00   6.197319e+00   1.712384e+03   1.712384e+03   2.652999e-07   1.142048e-07   2.394604e-07  -1.075557e+02   4.727686e+01  -1.363367e+02  -1.042908e+02  -8.203973e+01   2.743566e-01   8.510148e-02   9.578550e-01  -8.213551e-01  -4.972814e-01   2.794406e-01   5.001043e-01  -8.634054e-01  -6.653388e-02  -2.828326e+00  -1.633773e+00   4.882575e+00   3.563632e-01  -2.574682e-01   8.981734e-01  -6.202431e-01  -7.841199e-01   2.131646e-02   6.987873e-01  -5.646822e-01  -4.391244e-01  -9.278535e-08  -5.300594e-08   4.029860e-08  -4.287426e-01  -8.606742e-01   2.746264e-01  -5.999242e-01   4.395173e-02  -7.988487e-01   6.754782e-01  -5.072555e-01  -5.351833e-01
   1.500000e-02   5.000000e-03   5.253276e-03   1.713035e+03   5.469623e-01   3.321821e-01   3.199314e-01   3.478865e-01   4.593195e-03  -1.141942e-02   2.028358e-02  -2.893981e+02  -2.591305e+02  -3.700337e+02   1.825066e+01  -3.900913e+00  -4.831217e+01   5.240990e+01   1.233601e+02   2.186430e+02   1.175156e+02   1.718734e+00  -1.081336e+02   5.241666e+01   1.305789e+02  -2.593709e+01   1.043276e+02   1.233233e+02  -2.027678e+02   2.922648e+01  -1.353459e+01   2.186408e+02   5.243576e+01   1.305777e+02  -2.593683e+01   1.043264e+02   1.233404e+02  -2.027646e+02   2.922674e+01  -1.353141e+01   2.186652e+02  -7.246656e+00  -1.216577e+02  -2.038544e-02  -1.149856e+03   4.504019e+02   1.728044e-03   1.262908e+03  -8.441578e+02   1.515197e-02  -2.039294e-01  -4.244789e-01  -8.821737e-01  -8.860349e-01  -3.032123e-01   3.507198e-01   4.163591e-01  -8.531588e-01   3.142692e-01   1.546113e+03   6.352744e+02   2.335135e-02  -7.257350e+02   8.934744e-03  -4.797817e-03   1.458578e+06   4.651319e+05  -4.996759e-01  -7.915547e+05   8.648140e+00  -4.766149e+00   6.412366e+05   1.255219e+06  -7.131018e+02  -1.122918e+02  -9.006100e+01   2.837048e+02   2.542135e+02  -1.010670e+02  -3.051515e+02   6.113030e+02   5.168138e-07  -2.142308e-04  -1.739487e-04   1.502434e-06  -6.659977e-05  -2.259019e-05   8.730417e-07  -2.324732e-05   9.694573e-08   5.168138e-07  -6.659977e-05   9.694573e-08  -1.063642e-04  -8.653781e-05  -2.291875e-05  -1.078666e-04  -8.741085e-05   3.285622e-07   5.414699e+02   3.695287e+02   3.694861e+02   3.695063e+02   1.961485e+03   1.961485e+03   2.857316e-04   2.075828e-04   1.963465e-04  -3.061875e+02   1.338133e+02  -3.882059e+02  -2.955657e+02  -2.347908e+02   2.847926e-02  -3.539306e-01  -9.348380e-01  -9.468215e-01   2.903040e-01  -1.387537e-01   3.204964e-01   8.890763e-01  -3.268415e-01  -2.646830e+01   1.967448e+02   2.241365e+02   8.082415e-01  -5.747019e-01  -1.283096e-01   5.410297e-01   8.107748e-01  -2.234528e-01  -2.324490e-01  -1.111845e-01  -9.662326e-01  -1.745002e-04  -3.848955e-06   1.123631e-04  -6.116422e-01  -6.864661e-01  -3.932660e-01   1.974127e-01  -6.137980e-01   7.643823e-01  -7.661084e-01   3.898927e-01   5.109419e-01
   1.500000e-02   5.000000e-03   1.575983e-02   1.115058e+03   1.376559e+00   3.330019e-01   3.613500e-01   3.056481e-01   1.096332e-02   3.956543e-03   2.199392e-03  -1.121581e+02  -1.197262e+02  -1.337141e+02  -1.677732e+00   9.918796e-01   1.531831e+01   3.825523e+01   6.565887e+00   4.759679e+01   1.474166e+01   2.223319e+01  -3.345985e+01   3.825525e+01   9.693738e+00   1.530351e+01   1.978983e+01   6.565906e+00  -2.788635e+01   2.916331e+01  -3.903354e+01   4.759674e+01   3.825527e+01   9.693738e+00   1.530351e+01   1.978984e+01   6.565919e+00  -2.788635e+01   2.916331e+01  -3.903354e+01   4.759675e+01  -1.124083e+03   1.271325e+03   1.067151e+01   5.422837e+02  -2.595663e+02  -1.056540e+01   1.155394e+03   5.020247e+02   3.861076e+00  -5.138166e-01   8.180652e-01  -2.583831e-01   3.000325e-01  -1.108089e-01  -9.474713e-01   8.037244e-01   5.643498e-01   1.885107e-01   1.668894e+03   1.352107e+03   7.980928e+00  -3.276168e+02  -5.549920e+00   1.207973e+01   1.446285e+06   9.678349e+05   1.197083e+02  -4.948988e+05  -6.632022e+03   9.123866e+03   8.047466e+05   1.024922e+06   4.994273e-01   4.927722e-01   4.997233e-01  -2.034181e-03   3.976825e-04   1.413318e-03   4.973076e-01   5.384273e-03   1.097660e-07   2.092145e-06   3.312000e-06  -6.175828e-07   9.716999e-09  -5.948810e-07  -1.706007e-06  -1.013494e-07  -2.248516e-07   1.097660e-07   9.716999e-09  -2.248516e-07   7.372813e-07   8.029967e-07  -3.481152e-07   1.354864e-06   2.509004e-06  -2.467658e-07   2.127678e+02   8.742744e+01   8.742765e+01   8.742766e+01   2.197381e+03   2.197381e+03   4.366365e-06   1.637634e-06   4.047629e-06  -1.218661e+02   3.277418e+01  -1.436559e+02  -1.123687e+02  -1.095738e+02  -5.523796e-02  -5.410579e-01   8.391693e-01  -9.420470e-01  -2.502917e-01  -2.233865e-01  -3.309022e-01   8.028763e-01   4.958764e-01  -3.204698e+01   4.594255e+01   7.852234e+01  -4.241929e-01   7.420779e-01   5.190190e-01  -7.907429e-01  -5.828597e-01   1.870833e-01  -4.413456e-01   3.310512e-01  -8.340378e-01  -1.307688e-06   2.483055e-07   9.540135e-07   6.090345e-01  -5.029093e-01  -6.133182e-01   8.691086e-02  -7.263028e-01   6.818583e-01  -7.883676e-01  -4.685793e-01  -3.986351e-01
   1.500000e-02   1.500000e-02   5.253276e-03   1.596827e+03   6.595413e-01   3.126161e-01   3.300575e-01   3.573264e-01  -2.358244e-03   1.071749e-02   2.119318e-02  -3.139746e+02  -3.486807e+02  -3.551973e+02  -4.052728e+01   1.807123e+01   2.114854e+01   4.304911e+01   3.300808e+01   5.350227e+01   9.706448e+00   3.566477e-01  -5.678737e+00   1.748535e+01  -3.800870e+01   1.566598e+01  -3.879226e+01   1.599867e+02  -2.928164e+01   1.424060e+01  -2.892892e+01   3.921889e+01  -2.644174e+01  -4.367850e+01   1.819430e+01  -4.446252e+01   1.112040e+02  -2.632234e+01   1.676885e+01  -2.597058e+01  -1.047553e+01   5.886531e+02  -2.602425e+02   4.559024e-03  -1.221508e+03   1.027991e+03  -4.795730e-03  -8.159217e+02   7.677305e+02   9.165662e-03   8.177868e-01   5.155019e-01  -2.558955e-01  -5.481664e-01   5.622355e-01  -6.191970e-01  -1.753237e-01   6.466444e-01   7.423696e-01   1.294033e+03   9.402664e+02   8.607176e-03  -9.109344e+02   4.750210e-03   5.580780e-03   1.252160e+06   8.569507e+05  -4.999361e-01  -1.017650e+06   5.316210e-01   4.601692e-01   7.030368e+05   1.388215e+06  -4.415966e+02  -2.587315e+03  -3.719080e+03  -1.069609e+03   1.282347e+03   3.102513e+03  -2.249330e+03   4.499661e+03  -4.029837e-02  -4.368294e-03  -2.646018e-03  -1.738263e-01   1.969573e-01  -8.789297e-02   4.342415e-02   1.922318e-02  -1.675244e-02  -4.029837e-02   1.969573e-01  -1.675244e-02  -8.909730e-02   2.038906e-02  -3.433489e-02   8.472901e-02  -2.303508e-02  -5.355808e-02   5.925841e+02   7.784483e+01   1.803652e+02   1.379838e+02   2.053832e+03   2.053832e+03   2.844623e-01   2.444640e-01   1.454516e-01  -3.392842e+02   9.339144e+01  -3.947368e+02  -3.360747e+02  -2.870410e+02  -4.663401e-01  -6.736216e-01   5.733767e-01   2.676511e-01   5.103459e-01   8.172576e-01  -8.431428e-01   5.345849e-01  -5.769919e-02   2.666547e+01   4.726657e+01   5.562742e+01   4.842861e-01  -8.583193e-01  -1.695731e-01   8.318701e-01   3.916892e-01   3.931561e-01   2.710336e-01   3.314628e-01  -9.036997e-01  -7.147770e-02  -2.141403e-02   2.327982e-01   9.417883e-01   2.910703e-01  -1.682644e-01  -1.124488e-01  -1.989508e-01  -9.735368e-01   3.168439e-01  -9.357867e-01   1.546391e-01
   1.500000e-02   1.500000e-02   1.575983e-02   1.193231e+03   1.220861e+00   3.295687e-01   3.120910e-01   3.583403e-01  -1.015338e-02  -9.363665e-03  -6.333302e-03  -7.721954e+01  -7.537598e+01  -1.001934e+02   4.695704e-01   1.206677e+01   4.095774e+00   4.133311e-01  -1.478754e+00  -4.057665e+00   8.402861e-01  -9.640999e-01  -1.142449e+00   4.133331e-01   1.120597e+00  -5.846800e-02   5.599613e-01  -1.478770e+00  -5.693334e-01  -1.869755e+00  -1.715529e+00  -4.057673e+00   4.133443e-01   1.120597e+00  -5.846974e-02   5.599613e-01  -1.478760e+00  -5.693340e-01  -1.869757e+00  -1.715529e+00  -4.057658e+00  -6.868624e+02   6.663999e+02  -2.046772e-02  -8.595599e+02   5.223412e+02  -1.319020e-02   4.212961e+02  -3.533681e+02   1.196912e-02  -9.087297e-02   9.288243e-01   3.592039e-01  -9.737723e-01  -1.584258e-01   1.633060e-01   2.085898e-01  -3.349427e-01   9.188600e-01   9.873109e+02   6.545742e+02   1.491818e-03  -6.429081e+02   1.720085e-02  -2.093021e-02   6.940563e+05   4.208986e+05  -4.996319e-01  -5.277906e+05   1.521941e+01  -1.237949e+01   3.716515e+05   7.310363e+05  -2.901543e+04  -5.994439e+03  -1.898236e+05  -1.318896e+04  -7.421539e+04  -3.373402e+04  -7.494450e+04   1.498900e+05   1.514750e-08   5.046195e-08   1.189691e-08  -1.228391e-07  -1.042404e-07   1.179095e-07  -1.718846e-07   4.721866e-08  -5.541921e-08   1.514750e-08  -1.042404e-07  -5.541921e-08  -3.618855e-08  -7.999386e-08   8.256408e-08   8.665051e-08   9.189077e-08   3.534542e-08   1.483520e+02   5.211347e+00   5.211352e+00   5.211339e+00   1.493289e+03   1.493289e+03   2.786050e-07   2.078887e-07   1.854806e-07  -8.426297e+01   3.257850e+01  -1.057895e+02  -7.599837e+01  -7.100107e+01  -3.847531e-01  -1.173533e-01   9.155289e-01  -4.624180e-01   8.829401e-01  -8.115617e-02  -7.988333e-01  -4.545822e-01  -3.939803e-01  -5.294351e+00  -1.377685e+00   1.548948e+00   2.573837e-01   3.645832e-01   8.948926e-01  -4.828309e-01   8.507216e-01  -2.077188e-01  -8.370352e-01  -3.786183e-01   3.949939e-01  -1.684478e-07  -7.334502e-08   9.728074e-08   1.320180e-01  -7.536126e-01   6.439250e-01  -6.739597e-01  -5.445982e-01  -4.991905e-01   7.268766e-01  -3.680773e-01  -5.798013e-01
