     VARIABLES=
              x              y              z      nomin_den    nomin_voidr      fabric_xx      fabric_yy      fabric_zz      fabric_xy      fabric_xz      fabric_yz       sigma_xx       sigma_yy       sigma_zz       sigma_xy       sigma_xz       sigma_yz    sigmaDot_xx    sigmaDot_yy    sigmaDot_zz    sigmaDot_xy    sigmaDot_xz    sigmaDot_yz       Oldro_xx       Oldro_xy       Oldro_xz       Oldro_yx       Oldro_yy       Oldro_yz       Oldro_zx       Oldro_zy       Oldro_zz       Trues_xx       Trues_xy       Trues_xz       Trues_yx       Trues_yy       Trues_yz       Trues_zx       Trues_zy       Trues_zz           F_xX           F_xY           F_xZ           F_yX           F_yY           F_yZ           F_zX           F_zY           F_zZ           R_xX           R_xY           R_xZ           R_yX           R_yY           R_yZ           R_zX           R_zY           R_zZ           U_xX           U_yY           U_zZ           U_xY           U_xZ           U_yZ       Green_xx       Green_yy       Green_zz       Green_xy       Green_xz       Green_yz      Green_vol      Green_shr       Euler_xx       Euler_yy       Euler_zz       Euler_xy       Euler_xz       Euler_yz      Euler_vol      Euler_shr           l_xx           l_xy           l_xz           l_yx           l_yy           l_yz           l_zx           l_zy           l_zz           d_xx           d_yy           d_zz           d_xy           d_xz           d_yz           w_xy           w_xz           w_yz     norm_sigma  norm_sigmaDot     norm_Oldro     norm_Trues         norm_F         norm_U         norm_l         norm_d         norm_w              p              q        sigma_1        sigma_2        sigma_3     sigma_1_v1     sigma_1_v2     sigma_1_v3     sigma_2_v1     sigma_2_v2     sigma_2_v3     sigma_3_v1     sigma_3_v2     sigma_3_v3     sigmaDot_1     sigmaDot_2     sigmaDot_3  sigmaDot_1_v1  sigmaDot_1_v2  sigmaDot_1_v3  sigmaDot_2_v1  sigmaDot_2_v2  sigmaDot_2_v3  sigmaDot_3_v1  sigmaDot_3_v2  sigmaDot_3_v3            d_1            d_2            d_3         d_1_v1         d_1_v2         d_1_v3         d_2_v1         d_2_v2         d_2_v3         d_3_v1         d_3_v2         d_3_v3
ZONE I=2, J=2, K=2, DATAPACKING=POINT, STRANDID=5, SOLUTIONTIME=42
   5.000000e-03   5.000000e-03   5.253276e-03   1.575477e+03   6.820305e-01   3.406771e-01   3.072653e-01   3.520577e-01   6.658318e-03  -4.511766e-04   5.980610e-04  -3.169107e+02  -2.445403e+02  -3.733373e+02  -2.419222e+01   2.393043e+01  -2.606633e+01   1.586290e+01  -1.254181e+01   7.914121e+00   1.250716e+01  -4.448653e+00  -1.278684e+00   2.723362e+01   2.123129e+01  -7.232496e+00   1.614280e+01  -1.070739e+01  -1.293859e+00  -2.886629e+00  -2.422856e+00   7.906508e+00   2.091991e+01   2.074932e+01  -6.755737e+00   1.566083e+01  -1.557929e+01  -1.813169e+00  -2.409872e+00  -2.942167e+00   4.686314e-01   5.033103e+02  -8.525699e+02  -2.719031e-03  -3.369792e+02  -1.007237e+03   2.799633e-03  -8.345857e+01   1.694598e+02   1.989210e-02   7.726906e-01  -6.101958e-01   1.749580e-01  -6.221010e-01  -7.827408e-01   1.752699e-02  -1.262519e-01   1.223845e-01   9.844199e-01   6.090751e+02   1.329379e+03   1.915554e-02  -5.356450e+01  -6.354039e-03   1.902238e-03   1.869203e+05   8.850583e+05  -4.997945e-01  -5.191616e+04  -1.986050e+00   1.434591e+00   3.573260e+05   5.419793e+05  -4.121524e+01   8.166883e-02  -1.320017e+03  -4.177409e+00  -2.347034e+02  -2.350345e+01  -4.537168e+02   9.084337e+02   1.769499e-02   2.454917e-03  -7.620725e-04   1.609528e-02   2.232284e-03  -6.926331e-04   1.028679e-04   1.440876e-05  -4.608642e-06   1.769499e-02   2.232284e-03  -4.608642e-06   9.275097e-03  -3.296023e-04  -3.391122e-04  -6.820181e-03  -4.324702e-04  -3.535209e-04   5.507158e+02   2.915987e+01   4.121134e+01   3.767975e+01   1.464226e+03   1.464226e+03   2.417130e-02   2.214945e-02   9.677487e-03  -3.115961e+02   1.342282e+02  -3.841787e+02  -3.206320e+02  -2.299776e+02  -2.918109e-01   1.264233e-01   9.480841e-01  -9.022781e-01  -3.653129e-01  -2.289993e-01   3.173965e-01  -9.222601e-01   2.206713e-01  -1.573691e+01   7.328311e+00   1.964381e+01   2.973832e-01  -9.536635e-01  -4.570692e-02   2.300818e-01   2.512064e-02   9.728470e-01  -9.266205e-01  -2.998247e-01   2.268911e-01  -2.124439e-03  -2.228885e-07   2.204733e-02   4.214598e-01  -9.034006e-01  -7.898747e-02   5.161874e-02  -6.306120e-02   9.966739e-01   9.053768e-01   4.241352e-01  -2.005464e-02
   5.000000e-03   5.000000e-03   1.575983e-02   1.087368e+03   1.437076e+00   3.564787e-01   3.196542e-01   3.238671e-01  -1.130126e-02   2.350286e-02   3.392459e-04  -6.729314e+01  -7.684855e+01  -1.060229e+02   8.028101e+00   7.084985e-01   1.488449e+00  -4.032081e+01  -1.598352e+01  -1.342950e+01   1.404212e+01   3.616274e+01  -1.002221e+01  -4.032101e+01   1.258038e+01   3.556793e+01   1.550400e+01  -1.598356e+01  -1.174652e+01   3.675764e+01  -8.297986e+00  -1.342957e+01  -4.032088e+01   1.258037e+01   3.556793e+01   1.550398e+01  -1.598341e+01  -1.174652e+01   3.675764e+01  -8.297989e+00  -1.342936e+01   4.045324e+02  -1.217120e+03   1.976895e-02  -1.073970e+03   1.174091e+03  -1.298038e-03  -1.136228e+02  -8.644495e+02   2.675489e-02   6.245660e-03  -6.724524e-01  -7.401141e-01  -8.660895e-01   3.663227e-01  -3.401420e-01  -4.998499e-01  -6.431294e-01   5.801160e-01   9.894754e+02   1.804504e+03   1.331180e-03  -5.923744e+02  -1.212574e-02  -3.097603e-02   6.649840e+05   1.803571e+06  -4.994458e-01  -8.275409e+05   3.175634e+00  -2.435672e+01   8.228515e+05   1.422080e+06  -1.547903e+05  -3.269479e+04  -9.508418e+04  -7.114021e+04   1.213187e+05   5.575680e+04  -9.418976e+04   1.883805e+05  -1.440073e-06   5.197199e-07   6.310452e-07   2.487902e-07  -2.178160e-07  -3.304097e-07  -4.253245e-07  -9.543818e-08  -3.294810e-07  -1.440073e-06  -2.178160e-07  -3.294810e-07   3.842551e-07   1.028604e-07  -2.129239e-07   1.354649e-07   5.281848e-07  -1.174857e-07   1.476796e+02   7.268604e+01   7.268625e+01   7.268609e+01   2.221961e+03   2.221961e+03   1.805330e-06   1.623869e-06   7.888382e-07  -8.338820e+01   3.771911e+01  -1.061011e+02  -8.137713e+01  -6.268636e+01   8.184668e-03   4.857488e-02  -9.987860e-01  -4.963041e-01   8.673117e-01   3.811375e-02   8.681102e-01   4.953896e-01   3.120657e-02  -7.151078e+01  -1.066403e+01   1.244097e+01  -7.860520e-01   3.002265e-01   5.403575e-01   1.962491e-01   9.501175e-01  -2.424108e-01  -5.861813e-01  -8.450288e-02  -8.057610e-01  -1.571242e-06  -4.100140e-07  -6.114320e-09   9.485591e-01  -2.894785e-01  -1.282099e-01   2.523116e-01   4.465698e-01   8.584371e-01   1.912444e-01   8.466272e-01  -4.966366e-01
   5.000000e-03   1.500000e-02   5.253276e-03   1.524977e+03   7.377309e-01   3.310500e-01   3.223632e-01   3.465868e-01  -4.595055e-04   1.498103e-03   1.547003e-02  -2.982706e+02  -2.536127e+02  -2.909889e+02  -7.164328e+00   2.962750e+01  -3.487234e+01   1.714923e+00   4.637731e+00   2.740096e+00  -2.640983e+00   5.843921e-01  -5.827541e-01   4.410229e+00  -7.153200e+00  -1.702396e+00  -7.320778e+00   4.727033e+00  -7.640249e-02  -1.785165e+00  -3.786893e-02   2.677378e+00   3.156228e+00  -7.183320e+00  -1.577835e+00  -7.350898e+00   3.660785e+00  -2.230140e-01  -1.660604e+00  -1.844807e-01   1.453991e+00  -4.847060e+02   4.784231e+01  -1.250831e+00  -3.692961e+02   1.877489e+02  -1.065302e+00  -5.606253e+02  -5.993666e+02  -5.650015e-01  -6.529546e-01   2.638381e-01  -7.099576e-01  -5.567947e-01   4.682394e-01   6.860988e-01  -5.134491e-01  -8.432919e-01   1.588354e-01   8.099656e+02   6.059751e+02   6.739215e-02   1.719679e+02   1.699990e+00  -3.523723e-01   3.428096e+05   1.983889e+05   1.009337e+00   1.217479e+05   6.582258e+02   3.939554e+01   1.803998e+05   2.434341e+05  -6.280190e+01  -5.926244e+01  -2.691582e+00   6.150671e+01   1.421384e+01  -1.381074e+01  -4.158531e+01   8.417061e+01   3.785026e-03  -7.012580e-04  -7.550923e-03  -1.399975e-02   5.251069e-04   3.376871e-04   8.648117e-06  -8.292936e-06  -1.058933e-04   3.785026e-03   5.251069e-04  -1.058933e-04  -7.350503e-03  -3.771137e-03   1.646971e-04   6.649245e-03  -3.779786e-03   1.729900e-04   4.921887e+02   6.876603e+00   1.264190e+01   1.168092e+01   1.040386e+03   1.040386e+03   1.637769e-02   1.229514e-02   1.081935e-02  -2.809574e+02   9.032035e+01  -3.296134e+02  -2.873491e+02  -2.259097e+02  -6.263337e-01   2.755588e-01   7.292280e-01  -7.180581e-01  -5.680958e-01  -4.020693e-01  -3.034776e-01   7.754576e-01  -5.536848e-01   7.227179e-02   2.594330e+00   6.426149e+00   8.603753e-01   5.050439e-01  -6.844686e-02   4.510467e-02  -2.092247e-01  -9.768268e-01   5.076612e-01  -8.373504e-01   2.027916e-01  -6.266746e-03  -1.066747e-04   1.057766e-02   6.348235e-01   6.780564e-01   3.704573e-01   2.011551e-02   4.647927e-01  -8.851910e-01   7.723953e-01  -5.693920e-01  -2.814219e-01
   5.000000e-03   1.500000e-02   1.575983e-02   1.197247e+03   1.213411e+00   3.400255e-01   3.267249e-01   3.332496e-01   1.748780e-02   2.042451e-02   1.326583e-03  -1.010057e+02  -8.771592e+01  -1.334484e+02  -1.028002e+01  -9.309860e+00  -1.430760e+00   2.155594e+00   6.519662e+00  -3.372161e+00  -6.501368e+00  -4.150798e+00   2.165421e+00   2.155594e+00  -6.607922e+00  -4.315978e+00  -6.394838e+00   6.519680e+00   1.898475e+00  -3.985653e+00   2.432388e+00  -3.372187e+00   2.155591e+00  -6.607923e+00  -4.315979e+00  -6.394838e+00   6.519677e+00   1.898475e+00  -3.985654e+00   2.432388e+00  -3.372191e+00  -6.096923e+02  -5.957830e+01  -2.409363e-02  -7.429765e+02   1.051802e+03   2.377180e-03   3.660485e+02  -5.340171e+02   1.589234e-02  -8.956985e-01  -4.443975e-01  -1.533173e-02  -4.026601e-01   7.959824e-01   4.519700e-01   1.886506e-01  -4.110024e-01   8.919013e-01   9.143228e+02   1.083175e+03   1.561821e-02  -4.708973e+02   2.362153e-02   6.067553e-03   5.288647e+05   6.975055e+05  -4.995806e-01  -4.703081e+05   9.370440e+00  -2.275499e+00   4.087899e+05   6.866652e+05   2.079691e-02  -4.182724e+02  -1.630293e+03   1.416603e+01   2.795493e+01  -8.263965e+02  -6.828482e+02   1.366696e+03   1.935788e-08  -7.651941e-08  -1.168787e-07  -7.345206e-08   1.081984e-07   8.966639e-08  -1.643666e-08  -1.420997e-08  -9.398443e-08   1.935788e-08   1.081984e-07  -9.398443e-08  -7.498574e-08  -6.665769e-08   3.772821e-08  -1.533674e-09  -5.022103e-08   5.193818e-08   1.899829e+02   1.367903e+01   1.367907e+01   1.367907e+01   1.566123e+03   1.566123e+03   2.331049e-07   2.095084e-07   1.021967e-07  -1.073900e+02   4.736700e+01  -1.362838e+02  -1.039766e+02  -8.190955e+01   2.778984e-01   8.699474e-02   9.566632e-01  -8.216295e-01  -4.944451e-01   2.836355e-01   4.976922e-01  -8.648445e-01  -6.592806e-02  -5.547849e+00  -1.439840e+00   1.229078e+01   5.268232e-01   1.092718e-01   8.429217e-01  -6.144635e-01  -6.362370e-01   4.665159e-01   5.872750e-01  -7.637160e-01  -2.680409e-01  -1.248453e-07  -9.559111e-09   1.679763e-07   4.133727e-01  -1.438584e-02   9.104483e-01  -7.451715e-01  -5.799726e-01   3.291676e-01   5.232997e-01  -8.145090e-01  -2.504647e-01
   1.500000e-02   5.000000e-03   5.253276e-03   1.713035e+03   5.469623e-01   3.321899e-01   3.199196e-01   3.478905e-01   4.592063e-03  -1.143221e-02   2.027303e-02  -2.892968e+02  -2.589694e+02  -3.698325e+02   1.823763e+01  -3.817751e+00  -4.827436e+01   5.519921e+01  -1.037350e+01   8.476707e+01   7.785045e+01  -7.906630e+01  -1.740468e+02   5.518739e+01   9.319431e+01  -4.765246e+01   6.272170e+01  -1.034348e+01  -1.518840e+02  -1.102460e+02  -1.961624e+02   8.476646e+01   5.517420e+01   9.319514e+01  -4.765263e+01   6.272253e+01  -1.035528e+01  -1.518862e+02  -1.102462e+02  -1.961646e+02   8.474960e+01  -7.259144e+00  -1.216455e+02  -2.038527e-02  -1.149845e+03   4.503895e+02   1.728055e-03   1.262882e+03  -8.441308e+02   1.515195e-02  -2.039292e-01  -4.244680e-01  -8.821790e-01  -8.860360e-01  -3.032146e-01   3.507151e-01   4.163569e-01  -8.531634e-01   3.142597e-01   1.546094e+03   6.352514e+02   2.335116e-02  -7.257139e+02   8.934651e-03  -4.798170e-03   1.458533e+06   4.651020e+05  -4.996759e-01  -7.915163e+05   8.648058e+00  -4.766078e+00   6.412115e+05   1.255170e+06  -7.131224e+02  -1.122907e+02  -9.005703e+01   2.837075e+02   2.542116e+02  -1.010643e+02  -3.051567e+02   6.113134e+02  -6.428207e-07   3.702205e-04   2.693777e-04  -2.062625e-06   4.980269e-05   4.303553e-05  -9.532803e-08   2.111642e-05  -3.577038e-06  -6.428207e-07   4.980269e-05  -3.577038e-06   1.840789e-04   1.346412e-04   3.207598e-05   1.861416e-04   1.347365e-04   1.095955e-05   5.411923e+02   3.145672e+02   3.145323e+02   3.145287e+02   1.961446e+03   1.961446e+03   4.630586e-04   3.295116e-04   3.253390e-04  -3.060329e+02   1.337164e+02  -3.879873e+02  -2.954307e+02  -2.346808e+02   2.926451e-02  -3.538982e-01  -9.348260e-01  -9.470320e-01   2.893999e-01  -1.392051e-01   3.198030e-01   8.893839e-01  -3.266838e-01  -1.666486e+02  -6.585149e+00   3.028265e+02  -1.032467e-01  -7.616772e-01  -6.396780e-01  -8.855181e-01   3.632765e-01  -2.896342e-01   4.529877e-01   5.365426e-01  -7.119861e-01  -2.002064e-04  -1.546927e-05   2.612585e-04   7.513853e-01  -4.976411e-01  -4.333285e-01   7.029864e-02  -5.925871e-01   8.024329e-01   6.561084e-01   6.333987e-01   4.102777e-01
   1.500000e-02   5.000000e-03   1.575983e-02   1.115058e+03   1.376559e+00   3.330019e-01   3.613500e-01   3.056481e-01   1.096332e-02   3.956541e-03   2.199390e-03  -1.123474e+02  -1.196883e+02  -1.337162e+02  -1.879821e+00   1.070403e+00   1.546520e+01   3.872041e+01   7.533243e+00  -1.375880e+01   1.697276e+01   1.670368e+01  -2.840489e+01   3.872053e+01   1.698117e+01   7.184381e+00   1.696456e+01   7.533087e+00  -3.121911e+01   2.622373e+01  -2.559145e+01  -1.375911e+01   3.872072e+01   1.698117e+01   7.184379e+00   1.696456e+01   7.533292e+00  -3.121913e+01   2.622372e+01  -2.559148e+01  -1.375888e+01  -1.124083e+03   1.271325e+03   1.067151e+01   5.422837e+02  -2.595663e+02  -1.056540e+01   1.155394e+03   5.020247e+02   3.861076e+00  -5.138166e-01   8.180652e-01  -2.583831e-01   3.000325e-01  -1.108089e-01  -9.474713e-01   8.037244e-01   5.643498e-01   1.885107e-01   1.668894e+03   1.352107e+03   7.980928e+00  -3.276168e+02  -5.549919e+00   1.207973e+01   1.446285e+06   9.678349e+05   1.197083e+02  -4.948988e+05  -6.632021e+03   9.123865e+03   8.047466e+05   1.024922e+06   4.994273e-01   4.927722e-01   4.997233e-01  -2.034181e-03   3.976825e-04   1.413318e-03   4.973076e-01   5.384273e-03   5.236836e-07   1.569662e-06   3.113695e-06  -3.558201e-07  -8.665137e-07  -1.693529e-06  -1.347301e-07  -1.627877e-06  -1.369517e-06   5.236836e-07  -8.665137e-07  -1.369517e-06   6.069210e-07   1.489482e-06  -1.660703e-06   9.627411e-07   1.624212e-06  -3.282629e-08   2.128731e+02   6.848547e+01   6.848613e+01   6.848624e+01   2.197381e+03   2.197381e+03   4.552185e-06   3.686510e-06   2.670586e-06  -1.219173e+02   3.294249e+01  -1.438008e+02  -1.125790e+02  -1.093721e+02  -6.092193e-02  -5.422360e-01   8.380147e-01  -9.423001e-01  -2.456409e-01  -2.274448e-01  -3.291794e-01   8.035177e-01   4.959841e-01  -4.279457e+01   2.459828e+01   5.069115e+01  -3.577642e-01   5.162617e-01   7.781250e-01   1.385868e-02   8.361218e-01  -5.483688e-01  -9.337091e-01  -1.854030e-01  -3.062892e-01  -3.400464e-06   2.952702e-07   1.392846e-06  -3.671841e-01   5.697840e-01   7.352021e-01   4.506570e-01   8.004243e-01  -3.952584e-01  -8.136855e-01   1.861914e-01  -5.506802e-01
   1.500000e-02   1.500000e-02   5.253276e-03   1.596827e+03   6.595413e-01   3.125575e-01   3.301961e-01   3.572464e-01  -2.291253e-03   1.063992e-02   2.166474e-02  -3.136035e+02  -3.481929e+02  -3.548122e+02  -4.047518e+01   1.803439e+01   2.111775e+01  -5.551218e+01  -6.226152e+01  -6.286145e+01  -8.034895e+00   8.310857e+00  -3.699651e-02  -8.348795e+01  -9.579736e+01   1.835889e+01  -9.882059e+01  -1.976819e+02   4.126940e+01   1.829175e+01   4.084623e+01  -4.928578e+01  -2.596354e+01  -8.837346e+01   1.505104e+01  -9.139573e+01  -1.338127e+02   3.739496e+01   1.498348e+01   3.697341e+01   1.579756e+01   6.056421e+02  -2.816390e+02   4.698885e-03  -1.128003e+03   9.350353e+02  -3.846431e-03  -7.761192e+02   7.227168e+02   9.531183e-03   8.311212e-01   4.911595e-01  -2.607678e-01  -5.301138e-01   5.581339e-01  -6.383306e-01  -1.679787e-01   6.687667e-01   7.242474e-01   1.231703e+03   8.668741e+02   8.132911e-03  -8.511523e+02   4.343353e-03   6.535216e-03   1.120776e+06   7.379650e+05  -4.999361e-01  -8.931045e+05  -1.063537e-01   9.842042e-01   6.195802e+05   1.223210e+06  -5.137446e+02  -3.080050e+03  -3.964858e+03  -1.258633e+03   1.427993e+03   3.495065e+03  -2.519551e+03   5.040102e+03  -4.615964e-02   1.180913e-02  -5.524691e-04  -2.650515e-01  -1.567047e-01   1.145331e-01   3.501919e-02  -2.481161e-02   1.943400e-02  -4.615964e-02  -1.567047e-01   1.943400e-02  -1.266212e-01   1.723336e-02   4.486074e-02   1.384303e-01  -1.778583e-02   6.967235e-02   5.918581e+02   1.057430e+02   2.673262e+02   1.954713e+02   1.928078e+03   1.928078e+03   3.352859e-01   2.524868e-01   2.206061e-01  -3.388695e+02   9.326156e+01  -3.942325e+02  -3.356920e+02  -2.866841e+02  -4.663274e-01  -6.731803e-01   5.739051e-01   2.684501e-01   5.104791e-01   8.169122e-01  -8.428958e-01   5.350135e-01  -5.733510e-02  -7.197665e+01  -6.284642e+01  -4.581209e+01   6.086373e-01   5.843201e-01  -5.367781e-01  -2.127379e-02  -6.642520e-01  -7.472060e-01   7.931633e-01  -4.661967e-01   3.918578e-01  -2.478574e-01   2.123970e-02   4.318735e-02  -5.342226e-01  -8.273878e-01   1.733078e-01   5.351129e-01  -1.722760e-01   8.270279e-01  -6.544161e-01   5.345562e-01   5.347796e-01
   1.500000e-02   1.500000e-02   1.575983e-02   1.193231e+03   1.220861e+00   3.295687e-01   3.120910e-01   3.583403e-01  -1.015338e-02  -9.363665e-03  -6.333301e-03  -7.718452e+01  -7.534303e+01  -1.001783e+02   4.737779e-01   1.206330e+01   4.101041e+00  -3.695913e+00   2.981844e+00  -5.409742e+00  -8.728053e-01  -1.226109e+00  -1.235509e+00  -3.695924e+00  -4.166724e-01  -8.096525e-01  -1.328907e+00   2.981840e+00  -1.375959e+00  -1.642562e+00  -1.095039e+00  -5.409761e+00  -3.695910e+00  -4.166724e-01  -8.096548e-01  -1.328907e+00   2.981854e+00  -1.375960e+00  -1.642565e+00  -1.095040e+00  -5.409743e+00  -6.868624e+02   6.663999e+02  -2.046772e-02  -8.595599e+02   5.223412e+02  -1.319020e-02   4.212961e+02  -3.533681e+02   1.196912e-02  -9.087298e-02   9.288243e-01   3.592039e-01  -9.737723e-01  -1.584258e-01   1.633060e-01   2.085898e-01  -3.349427e-01   9.188600e-01   9.873109e+02   6.545742e+02   1.491818e-03  -6.429081e+02   1.720085e-02  -2.093021e-02   6.940563e+05   4.208986e+05  -4.996319e-01  -5.277906e+05   1.521941e+01  -1.237949e+01   3.716515e+05   7.310363e+05  -2.902506e+04  -5.996424e+03  -1.898866e+05  -1.319333e+04  -7.424000e+04  -3.374520e+04  -7.496935e+04   1.499397e+05  -7.063668e-08  -3.037367e-08  -1.159622e-08   2.530382e-07  -1.739076e-08   1.495454e-07   4.542659e-09  -3.928499e-08  -9.714007e-08  -7.063668e-08  -1.739076e-08  -9.714007e-08   1.113323e-07  -3.526779e-09   5.513019e-08  -1.417059e-07  -8.069438e-09   9.441518e-08   1.483066e+02   7.759002e+00   7.759012e+00   7.758999e+00   1.493289e+03   1.493289e+03   3.220890e-07   2.135918e-07   2.410805e-07  -8.423527e+01   3.259053e+01  -1.057695e+02  -7.596955e+01  -7.096681e+01  -3.844679e-01  -1.174280e-01   9.156392e-01  -4.631972e-01   8.825173e-01  -8.131172e-02  -7.985191e-01  -4.553833e-01  -3.936918e-01  -6.681179e+00  -2.750290e+00   3.307657e+00   5.313737e-01   1.671905e-01   8.304753e-01   8.309762e-01   8.770505e-02  -5.493509e-01   1.646831e-01  -9.820159e-01   9.232716e-02  -1.771165e-07  -8.834271e-08   8.029174e-08  -6.526998e-01   6.100195e-01  -4.492874e-01   4.946911e-01  -1.059993e-01  -8.625804e-01   5.738150e-01   7.852645e-01   2.325855e-01
