     VARIABLES=
              x              y              z      nomin_den    nomin_voidr      fabric_xx      fabric_yy      fabric_zz      fabric_xy      fabric_xz      fabric_yz       sigma_xx       sigma_yy       sigma_zz       sigma_xy       sigma_xz       sigma_yz    sigmaDot_xx    sigmaDot_yy    sigmaDot_zz    sigmaDot_xy    sigmaDot_xz    sigmaDot_yz       Oldro_xx       Oldro_xy       Oldro_xz       Oldro_yx       Oldro_yy       Oldro_yz       Oldro_zx       Oldro_zy       Oldro_zz       Trues_xx       Trues_xy       Trues_xz       Trues_yx       Trues_yy       Trues_yz       Trues_zx       Trues_zy       Trues_zz           F_xX           F_xY           F_xZ           F_yX           F_yY           F_yZ           F_zX           F_zY           F_zZ           R_xX           R_xY           R_xZ           R_yX           R_yY           R_yZ           R_zX           R_zY           R_zZ           U_xX           U_yY           U_zZ           U_xY           U_xZ           U_yZ       Green_xx       Green_yy       Green_zz       Green_xy       Green_xz       Green_yz      Green_vol      Green_shr       Euler_xx       Euler_yy       Euler_zz       Euler_xy       Euler_xz       Euler_yz      Euler_vol      Euler_shr           l_xx           l_xy           l_xz           l_yx           l_yy           l_yz           l_zx           l_zy           l_zz           d_xx           d_yy           d_zz           d_xy           d_xz           d_yz           w_xy           w_xz           w_yz     norm_sigma  norm_sigmaDot     norm_Oldro     norm_Trues         norm_F         norm_U         norm_l         norm_d         norm_w              p              q        sigma_1        sigma_2        sigma_3     sigma_1_v1     sigma_1_v2     sigma_1_v3     sigma_2_v1     sigma_2_v2     sigma_2_v3     sigma_3_v1     sigma_3_v2     sigma_3_v3     sigmaDot_1     sigmaDot_2     sigmaDot_3  sigmaDot_1_v1  sigmaDot_1_v2  sigmaDot_1_v3  sigmaDot_2_v1  sigmaDot_2_v2  sigmaDot_2_v3  sigmaDot_3_v1  sigmaDot_3_v2  sigmaDot_3_v3            d_1            d_2            d_3         d_1_v1         d_1_v2         d_1_v3         d_2_v1         d_2_v2         d_2_v3         d_3_v1         d_3_v2         d_3_v3
ZONE I=2, J=2, K=2, DATAPACKING=POINT, STRANDID=5, SOLUTIONTIME=58
   5.000000e-03   5.000000e-03   5.253276e-03   1.575477e+03   6.820305e-01   3.406724e-01   3.072742e-01   3.520534e-01   6.657379e-03  -4.484524e-04   6.021905e-04  -3.167584e+02  -2.445073e+02  -3.730692e+02  -2.421682e+01   2.401842e+01  -2.608368e+01   4.839565e+00  -1.602118e+01  -4.683136e+00   7.043461e+00   4.191328e+00  -4.980091e+00  -5.546328e+00   2.973452e+00   2.874827e+00  -1.150306e-01  -1.768684e+01  -4.015005e+00   6.595689e+00  -4.896112e+00  -4.672928e+00   2.154849e-01   3.413954e+00   2.437933e+00   3.254722e-01  -1.323927e+01  -3.540544e+00   6.158796e+00  -4.421652e+00   2.113174e+00   5.033558e+02  -8.523830e+02  -2.722549e-03  -3.375299e+02  -1.007724e+03   2.796425e-03  -8.323945e+01   1.696552e+02   1.989381e-02   7.727524e-01  -6.101677e-01   1.747830e-01  -6.220975e-01  -7.827353e-01   1.789397e-02  -1.258905e-01   1.225596e-01   9.844444e-01   6.094249e+02   1.329670e+03   1.915854e-02  -5.313667e+01  -6.347947e-03   1.910530e-03   1.871106e+05   8.854227e+05  -4.997945e-01  -5.151853e+04  -1.985119e+00   1.438860e+00   3.575110e+05   5.421254e+05  -4.111878e+01   6.409747e-02  -1.319669e+03  -4.259307e+00  -2.344010e+02  -2.398883e+01  -4.535745e+02   9.081491e+02  -1.616996e-02  -2.241364e-03   6.951042e-04  -1.461242e-02  -2.025938e-03   6.285198e-04  -1.410729e-04  -1.968060e-05   5.974870e-06  -1.616996e-02  -2.025938e-03   5.974870e-06  -8.426894e-03   2.770157e-04   3.044196e-04   6.185530e-03   4.180886e-04   3.241002e-04   5.504433e+02   2.231746e+01   2.159021e+01   1.635579e+01   1.464605e+03   1.464605e+03   2.202311e-02   2.019743e-02   8.779592e-03  -3.114450e+02   1.341296e+02  -3.839754e+02  -3.204724e+02  -2.298872e+02  -2.931163e-01   1.263439e-01   9.476920e-01  -9.015835e-01  -3.663921e-01  -2.300087e-01   3.181666e-01  -9.218428e-01   2.213050e-01  -2.040223e+01  -3.561491e+00   8.098970e+00  -2.868082e-01   8.662280e-01   4.091334e-01   2.801142e-01   4.842406e-01  -8.288830e-01  -9.161207e-01  -1.231264e-01  -3.815269e-01  -2.010630e-02  -1.073468e-07   1.916478e-03   9.061036e-01   4.226346e-01  -1.887719e-02  -5.219764e-02   6.740576e-02  -9.963593e-01  -4.198235e-01   9.037901e-01   8.313712e-02
   5.000000e-03   5.000000e-03   1.575983e-02   1.087368e+03   1.437076e+00   3.564787e-01   3.196542e-01   3.238671e-01  -1.130125e-02   2.350287e-02   3.392484e-04  -6.730652e+01  -7.668586e+01  -1.060245e+02   8.023804e+00   7.479174e-01   1.511108e+00   2.544233e+01   6.830378e+00   1.181301e+01  -5.433580e+00  -2.225077e+01  -4.260799e+00   2.544243e+01  -6.438171e+00  -2.009384e+01  -4.429021e+00   6.830377e+00  -3.401893e+00  -2.440783e+01  -5.119652e+00   1.181305e+01   2.544237e+01  -6.438163e+00  -2.009384e+01  -4.429014e+00   6.830309e+00  -3.401892e+00  -2.440783e+01  -5.119651e+00   1.181296e+01   4.045325e+02  -1.217120e+03   1.976895e-02  -1.073970e+03   1.174091e+03  -1.298042e-03  -1.136228e+02  -8.644495e+02   2.675489e-02   6.245680e-03  -6.724523e-01  -7.401141e-01  -8.660895e-01   3.663227e-01  -3.401420e-01  -4.998499e-01  -6.431295e-01   5.801160e-01   9.894754e+02   1.804504e+03   1.331181e-03  -5.923744e+02  -1.212574e-02  -3.097603e-02   6.649840e+05   1.803571e+06  -4.994458e-01  -8.275411e+05   3.175638e+00  -2.435673e+01   8.228515e+05   1.422080e+06  -1.548338e+05  -3.270398e+04  -9.511092e+04  -7.116022e+04   1.213528e+05   5.577248e+04  -9.421625e+04   1.884335e+05   7.158665e-07  -1.506926e-08  -3.828638e-07  -1.465122e-07  -1.423857e-08   2.716282e-07  -4.216109e-07  -7.152541e-08   1.919970e-07   7.158665e-07  -1.423857e-08   1.919970e-07  -8.079074e-08  -4.022374e-07   1.000514e-07   6.572148e-08   1.937353e-08   1.715768e-07   1.476026e+02   4.395295e+01   4.395309e+01   4.395302e+01   2.221961e+03   2.221961e+03   9.871482e-07   9.519428e-07   2.612786e-07  -8.333896e+01   3.775680e+01  -1.061052e+02  -8.125453e+01  -6.265715e+01   9.159905e-03   4.880405e-02  -9.987664e-01  -4.998053e-01   8.653169e-01   3.769931e-02   8.660893e-01   4.988434e-01   3.231875e-02  -9.507660e+00   9.619307e+00   4.397407e+01  -5.611612e-01  -3.821872e-01  -7.341873e-01   2.218099e-01  -9.240079e-01   3.114639e-01   7.974324e-01  -1.193149e-02  -6.032903e-01  -7.659110e-08   2.160547e-08   9.486106e-07   2.586880e-01  -7.121055e-01   6.526763e-01  -4.207883e-01  -6.912716e-01  -5.874358e-01   8.694928e-01  -1.226760e-01  -4.784693e-01
   5.000000e-03   1.500000e-02   5.253276e-03   1.524977e+03   7.377309e-01   3.310357e-01   3.223816e-01   3.465827e-01  -4.706362e-04   1.699566e-03   1.541679e-02  -2.983308e+02  -2.536761e+02  -2.910669e+02  -7.131253e+00   2.962749e+01  -3.484426e+01  -3.323371e+00   1.955699e+00  -5.982622e-01   2.564279e+00  -3.415276e-01   1.694883e-01  -3.045390e+00   2.220685e+00  -1.715459e+00   1.650555e+00   2.067623e+00   5.763523e-01  -1.276269e+00   4.388181e-01  -5.282058e-01  -3.142337e+00   2.218368e+00  -1.705831e+00   1.648237e+00   1.985187e+00   5.650291e-01  -1.266641e+00   4.274949e-01  -6.227925e-01  -4.851236e+02   4.748425e+01  -1.251545e+00  -3.665840e+02   1.904553e+02  -1.065044e+00  -5.600488e+02  -5.988050e+02  -5.651081e-01  -6.540537e-01   2.627235e-01  -7.093589e-01  -5.545848e-01   4.711982e-01   6.858630e-01  -5.144409e-01  -8.419909e-01   1.624865e-01   8.087108e+02   6.064058e+02   6.549783e-02   1.713689e+02   1.699950e+00  -3.548414e-01   3.416912e+05   1.985472e+05   1.010016e+00   1.212532e+05   6.570353e+02   3.805876e+01   1.800798e+05   2.426152e+05  -6.669708e+01  -6.300451e+01  -3.051578e+00   6.532471e+01   1.544848e+01  -1.501803e+01  -4.425106e+01   8.950211e+01   8.240915e-05  -2.977205e-04  -3.933119e-03  -1.301035e-03   1.208797e-04   9.922958e-04   2.287975e-05   8.322348e-06   1.216768e-04   8.240915e-05   1.208797e-04   1.216768e-04  -7.993776e-04  -1.955120e-03   5.003091e-04   5.016570e-04  -1.977999e-03   4.919867e-04   4.922991e+02   5.379376e+00   5.155642e+00   5.182394e+00   1.039462e+03   1.039462e+03   4.274600e-03   3.075682e-03   2.968566e-03  -2.810246e+02   9.028131e+01  -3.296834e+02  -2.873734e+02  -2.260171e+02  -6.264006e-01   2.755118e-01   7.291883e-01  -7.180763e-01  -5.679291e-01  -4.022724e-01  -3.032965e-01   7.755964e-01  -5.535896e-01  -4.177473e+00  -5.928176e-01   2.804357e+00   9.363269e-01  -3.486435e-01   4.170878e-02  -4.441282e-02   2.372199e-04   9.990132e-01  -3.483094e-01  -9.372554e-01  -1.526213e-02  -1.879317e-03  -2.204620e-04   2.424744e-03  -7.249234e-01  -1.200555e-01  -6.782866e-01  -1.744391e-01  -9.206010e-01   3.493777e-01   6.663760e-01  -3.715918e-01  -6.464229e-01
   5.000000e-03   1.500000e-02   1.575983e-02   1.197247e+03   1.213411e+00   3.401751e-01   3.265106e-01   3.333143e-01   1.687746e-02   1.970593e-02   1.252748e-03  -1.011411e+02  -8.796524e+01  -1.335967e+02  -1.031578e+01  -9.151227e+00  -1.335423e+00   1.468670e+00   3.534298e-01   2.801355e+00   3.755503e-01  -2.420385e-01   5.486867e-01   1.468675e+00   5.771879e-01   5.177897e-02   1.739174e-01   3.534299e-01   5.499630e-01  -5.358584e-01   5.474029e-01   2.801355e+00   1.468672e+00   5.771876e-01   5.177874e-02   1.739171e-01   3.534276e-01   5.499630e-01  -5.358586e-01   5.474028e-01   2.801352e+00  -5.269608e+02  -1.391226e+02  -2.412747e-02  -8.113049e+02   1.193406e+03   6.155804e-03   4.251979e+02  -6.318241e+02   1.806118e-02  -8.717360e-01  -4.899366e-01  -6.206094e-03  -4.356785e-01   7.692758e-01   4.673317e-01   2.241887e-01  -4.100938e-01   8.840603e-01   9.081634e+02   1.245327e+03   1.899371e-02  -5.403109e+02   2.239995e-02   9.149663e-03   5.583478e+05   9.213865e+05  -4.995269e-01  -5.817770e+05   7.699788e+00  -3.542215e-01   4.932446e+05   8.593655e+05   4.474001e-01  -3.022247e+02  -1.082842e+03   3.990329e+00   7.548617e+00  -5.726729e+02  -4.615396e+02   9.240792e+02   2.123059e-08   2.455909e-09   3.080337e-08   2.915128e-08  -1.038362e-09  -1.178313e-07  -6.909916e-08   1.409456e-07   5.295532e-09   2.123059e-08  -1.038362e-09   5.295532e-09   1.580359e-08  -1.914790e-08   1.155715e-08  -1.334768e-08   4.995127e-08  -1.293885e-07   1.902613e+02   3.374140e+00   3.374142e+00   3.374138e+00   1.720311e+03   1.720311e+03   2.020127e-07   4.449478e-08   1.970516e-07  -1.075677e+02   4.722713e+01  -1.363314e+02  -1.042742e+02  -8.209741e+01   2.739561e-01   8.489240e-02   9.579882e-01  -8.216932e-01  -4.969599e-01   2.790180e-01   4.997682e-01  -8.636111e-01  -6.638968e-02   1.709628e-01   1.383035e+00   3.069457e+00   2.265448e-01  -9.433381e-01   2.424678e-01  -9.279070e-01  -2.847041e-01  -2.406909e-01   2.960845e-01  -1.704603e-01  -9.398283e-01  -2.325287e-08   1.316173e-08   3.557890e-08   4.834046e-01  -6.493365e-01   5.870963e-01   1.636692e-01   7.258772e-01   6.680678e-01  -8.599607e-01  -2.268575e-01   4.571688e-01
   1.500000e-02   5.000000e-03   5.253276e-03   1.713035e+03   5.469623e-01   3.321877e-01   3.199245e-01   3.478879e-01   4.592267e-03  -1.142536e-02   2.028026e-02  -2.894072e+02  -2.592231e+02  -3.701189e+02   1.830343e+01  -3.960977e+00  -4.832851e+01   1.069782e+02  -9.274951e+01   5.750323e+01   7.042512e+01  -1.474360e+02  -8.536714e+01   1.069902e+02   1.147882e+02  -1.034101e+02   2.583103e+01  -9.278830e+01   4.518563e+01  -1.917259e+02  -2.159562e+02   5.750131e+01   1.070104e+02   1.147869e+02  -1.034098e+02   2.582976e+01  -9.277019e+01   4.518901e+01  -1.917256e+02  -2.159528e+02   5.752717e+01  -7.230741e+00  -1.216735e+02  -2.038556e-02  -1.149860e+03   4.504066e+02   1.728008e-03   1.262924e+03  -8.441741e+02   1.515199e-02  -2.039290e-01  -4.244967e-01  -8.821652e-01  -8.860326e-01  -3.032102e-01   3.507274e-01   4.163641e-01  -8.531507e-01   3.142845e-01   1.546124e+03   6.352898e+02   2.335153e-02  -7.257461e+02   8.934882e-03  -4.797283e-03   1.458603e+06   4.651497e+05  -4.996759e-01  -7.915763e+05   8.648128e+00  -4.766116e+00   6.412509e+05   1.255247e+06  -7.130775e+02  -1.122950e+02  -9.006847e+01   2.837040e+02   2.542196e+02  -1.010726e+02  -3.051470e+02   6.112939e+02   1.382886e-07  -3.923118e-04  -3.053063e-04  -3.383738e-07  -6.607745e-05  -4.700559e-05   5.549607e-07   1.022603e-05  -3.929367e-06   1.382886e-07  -6.607745e-05  -3.929367e-06  -1.963251e-04  -1.523757e-04  -1.838978e-05  -1.959867e-04  -1.529306e-04  -2.861581e-05   5.415846e+02   3.650708e+02   3.651545e+02   3.651576e+02   1.961507e+03   1.961507e+03   5.038022e-04   3.585831e-04   3.538854e-04  -3.062497e+02   1.338588e+02  -3.882954e+02  -2.956260e+02  -2.348278e+02   2.812379e-02  -3.539591e-01  -9.348380e-01  -9.464240e-01   2.915462e-01  -1.388609e-01   3.216996e-01   8.886584e-01  -3.267960e-01  -2.716568e+02   4.934850e-01   3.428952e+02  -2.707444e-01  -7.250505e-01  -6.332451e-01  -7.466198e-01   5.733960e-01  -3.373068e-01   6.076646e-01   3.814694e-01  -6.965808e-01  -2.819039e-04  -9.378531e-06   2.214139e-04   6.594816e-01   6.342710e-01   4.034653e-01  -1.014348e-01   6.068984e-01  -7.882800e-01  -7.448456e-01   4.789308e-01   4.645755e-01
   1.500000e-02   5.000000e-03   1.575983e-02   1.115058e+03   1.376559e+00   3.330019e-01   3.613500e-01   3.056481e-01   1.096332e-02   3.956545e-03   2.199394e-03  -1.120365e+02  -1.197699e+02  -1.337015e+02  -1.550879e+00   9.496818e-01   1.523149e+01  -1.296610e+01   1.489881e+01  -1.646286e+01  -1.437989e+01   2.991917e+00  -4.100078e+00  -1.296616e+01  -1.891170e+01   8.252941e+00  -9.848233e+00   1.489877e+01  -7.539724e+00  -2.269400e+00  -6.601807e-01  -1.646252e+01  -1.296627e+01  -1.891171e+01   8.252942e+00  -9.848234e+00   1.489865e+01  -7.539709e+00  -2.269399e+00  -6.601656e-01  -1.646265e+01  -1.124083e+03   1.271325e+03   1.067151e+01   5.422837e+02  -2.595664e+02  -1.056540e+01   1.155394e+03   5.020246e+02   3.861076e+00  -5.138166e-01   8.180652e-01  -2.583831e-01   3.000325e-01  -1.108089e-01  -9.474713e-01   8.037244e-01   5.643498e-01   1.885107e-01   1.668894e+03   1.352107e+03   7.980928e+00  -3.276168e+02  -5.549920e+00   1.207973e+01   1.446285e+06   9.678349e+05   1.197083e+02  -4.948989e+05  -6.632022e+03   9.123867e+03   8.047466e+05   1.024922e+06   4.994273e-01   4.927722e-01   4.997233e-01  -2.034181e-03   3.976824e-04   1.413318e-03   4.973076e-01   5.384272e-03  -2.600808e-07  -8.804583e-07  -1.700196e-06   4.343382e-08  -1.372862e-07   2.361669e-07   5.939265e-07   9.359629e-07   1.386954e-06  -2.600808e-07  -1.372862e-07   1.386954e-06  -4.185123e-07  -5.531347e-07   5.860649e-07  -4.619461e-07  -1.147061e-06  -3.498980e-07   2.127057e+02   3.530304e+01   3.530289e+01   3.530294e+01   2.197381e+03   2.197381e+03   2.638643e-06   1.912928e-06   1.817455e-06  -1.218360e+02   3.267315e+01  -1.435694e+02  -1.122302e+02  -1.097084e+02  -5.188444e-02  -5.407147e-01   8.396044e-01  -9.418349e-01  -2.530463e-01  -2.211666e-01  -3.320468e-01   8.022438e-01   4.961348e-01  -1.864892e+01  -1.390932e+01   1.802809e+01   6.475895e-01   2.045516e-01   7.340208e-01  -6.991841e-01  -2.234523e-01   6.791249e-01   3.029347e-01  -9.530098e-01  -1.686159e-03  -6.226821e-07  -1.868049e-07   1.799074e-06  -7.737670e-01  -6.328324e-01  -2.842129e-02   5.538701e-01  -6.976301e-01   4.544670e-01   3.074290e-01  -3.359098e-01  -8.903101e-01
   1.500000e-02   1.500000e-02   5.253276e-03   1.596827e+03   6.595413e-01   3.125494e-01   3.301452e-01   3.573054e-01  -2.510844e-03   1.029623e-02   2.186016e-02  -3.143262e+02  -3.491437e+02  -3.555849e+02  -4.057222e+01   1.809825e+01   2.116247e+01   2.538872e+01   1.609923e+01   2.360960e+01   3.059777e+00   2.032128e+00   7.993810e-01   4.821081e+01   6.270315e+01  -1.294312e+01   6.268782e+01   4.381153e+01  -1.109758e+01  -1.194931e+01  -1.027010e+01   2.957452e+01   2.934507e+01   6.026810e+01  -1.185687e+01   6.025262e+01   2.285605e+01  -9.827291e+00  -1.086305e+01  -9.000055e+00   8.232441e+00   6.124013e+02  -2.834709e+02   4.730624e-03  -1.115774e+03   9.220046e+02  -3.918532e-03  -7.780843e+02   7.301228e+02   9.523345e-03   8.302908e-01   4.831204e-01  -2.778704e-01  -5.334135e-01   5.443613e-01  -6.474109e-01  -1.615155e-01   6.857591e-01   7.096811e-01   1.229313e+03   8.656414e+02   7.980938e-03  -8.450991e+02   4.479823e-03   6.683084e-03   1.112701e+06   7.317632e+05  -4.999358e-01  -8.852220e+05  -7.036423e-02   9.996565e-01   6.148212e+05   1.212931e+06  -6.058209e+02  -3.289995e+03  -3.953155e+03  -1.412479e+03   1.548284e+03   3.606866e+03  -2.616323e+03   5.233647e+03   3.676714e-02  -9.513768e-03  -1.327010e-02   1.913798e-01   1.620164e-02  -2.054327e-02  -2.952775e-02   2.793654e-03   7.050864e-03   3.676714e-02   1.620164e-02   7.050864e-03   9.093304e-02  -2.139892e-02  -8.874810e-03  -1.004468e-01   8.128826e-03  -1.166846e-02   5.932840e+02   3.860419e+01   1.162703e+02   9.565613e+01   1.920659e+03   1.920659e+03   1.996462e-01   1.388345e-01   1.434698e-01  -3.396849e+02   9.350176e+01  -3.952053e+02  -3.364669e+02  -2.873827e+02  -4.663203e-01  -6.739799e-01   5.729717e-01   2.669175e-01   5.103178e-01   8.175150e-01  -8.433863e-01   5.341600e-01  -5.807452e-02   1.516158e+01   2.189582e+01   2.804015e+01  -2.727052e-01   9.604506e-01  -5.627214e-02  -5.250214e-01  -9.954932e-02   8.452470e-01   8.062161e-01   2.600473e-01   5.314048e-01  -6.585781e-02   3.713730e-03   1.221637e-01   6.718257e-01  -7.327959e-01   1.079833e-01   6.708662e-02   2.053823e-01   9.763798e-01   7.376649e-01   6.487128e-01  -1.871419e-01
   1.500000e-02   1.500000e-02   1.575983e-02   1.193231e+03   1.220861e+00   3.295687e-01   3.120910e-01   3.583403e-01  -1.015338e-02  -9.363665e-03  -6.333302e-03  -7.722990e+01  -7.539533e+01  -1.002021e+02   4.733872e-01   1.206743e+01   4.092051e+00   1.220747e+00   1.826059e+00  -7.832265e-01   1.377454e+00   2.711415e+00   3.810620e+00   1.220740e+00   9.038591e-01   2.070284e+00   1.851025e+00   1.826089e+00   3.239849e+00   3.352570e+00   4.381423e+00  -7.832386e-01   1.220731e+00   9.038592e-01   2.070285e+00   1.851025e+00   1.826080e+00   3.239849e+00   3.352571e+00   4.381423e+00  -7.832507e-01  -6.868624e+02   6.663999e+02  -2.046772e-02  -8.595599e+02   5.223412e+02  -1.319020e-02   4.212961e+02  -3.533681e+02   1.196912e-02  -9.087297e-02   9.288243e-01   3.592039e-01  -9.737723e-01  -1.584258e-01   1.633060e-01   2.085898e-01  -3.349427e-01   9.188600e-01   9.873109e+02   6.545742e+02   1.491818e-03  -6.429081e+02   1.720085e-02  -2.093021e-02   6.940563e+05   4.208986e+05  -4.996319e-01  -5.277906e+05   1.521941e+01  -1.237949e+01   3.716515e+05   7.310363e+05  -2.902939e+04  -5.997323e+03  -1.899149e+05  -1.319531e+04  -7.425109e+04  -3.375025e+04  -7.498055e+04   1.499621e+05  -3.187804e-08  -1.627253e-07   9.830955e-08   2.541492e-09   2.024799e-07  -2.551068e-08   4.072722e-09   2.448855e-07  -4.961578e-08  -3.187804e-08   2.024799e-07  -4.961578e-08  -8.009190e-08   5.119114e-08   1.096874e-07  -8.263340e-08   4.711842e-08  -1.351981e-07   1.483731e+02   7.409481e+00   7.409508e+00   7.409507e+00   1.493289e+03   1.493289e+03   3.758498e-07   2.942944e-07   2.337817e-07  -8.427579e+01   3.257312e+01  -1.057979e+02  -7.601826e+01  -7.101118e+01  -3.847868e-01  -1.172346e-01   9.155300e-01  -4.618778e-01   8.832351e-01  -8.102283e-02  -7.991295e-01  -4.540395e-01  -3.940052e-01  -4.598003e+00  -3.428868e-01   7.204469e+00   3.251546e-01   4.671058e-01  -8.222449e-01  -7.921434e-01   6.094441e-01   3.296556e-02   5.165107e-01   6.406169e-01   5.681783e-01  -1.455372e-07   1.096943e-08   2.555539e-07   5.832046e-01   3.632244e-01  -7.265951e-01   7.857567e-01  -2.535535e-02   6.180158e-01  -2.060553e-01   9.313566e-01   3.001934e-01
