     VARIABLES=
              x              y              z      nomin_den    nomin_voidr      fabric_xx      fabric_yy      fabric_zz      fabric_xy      fabric_xz      fabric_yz       sigma_xx       sigma_yy       sigma_zz       sigma_xy       sigma_xz       sigma_yz    sigmaDot_xx    sigmaDot_yy    sigmaDot_zz    sigmaDot_xy    sigmaDot_xz    sigmaDot_yz       Oldro_xx       Oldro_xy       Oldro_xz       Oldro_yx       Oldro_yy       Oldro_yz       Oldro_zx       Oldro_zy       Oldro_zz       Trues_xx       Trues_xy       Trues_xz       Trues_yx       Trues_yy       Trues_yz       Trues_zx       Trues_zy       Trues_zz           F_xX           F_xY           F_xZ           F_yX           F_yY           F_yZ           F_zX           F_zY           F_zZ           R_xX           R_xY           R_xZ           R_yX           R_yY           R_yZ           R_zX           R_zY           R_zZ           U_xX           U_yY           U_zZ           U_xY           U_xZ           U_yZ       Green_xx       Green_yy       Green_zz       Green_xy       Green_xz       Green_yz      Green_vol      Green_shr       Euler_xx       Euler_yy       Euler_zz       Euler_xy       Euler_xz       Euler_yz      Euler_vol      Euler_shr           l_xx           l_xy           l_xz           l_yx           l_yy           l_yz           l_zx           l_zy           l_zz           d_xx           d_yy           d_zz           d_xy           d_xz           d_yz           w_xy           w_xz           w_yz     norm_sigma  norm_sigmaDot     norm_Oldro     norm_Trues         norm_F         norm_U         norm_l         norm_d         norm_w              p              q        sigma_1        sigma_2        sigma_3     sigma_1_v1     sigma_1_v2     sigma_1_v3     sigma_2_v1     sigma_2_v2     sigma_2_v3     sigma_3_v1     sigma_3_v2     sigma_3_v3     sigmaDot_1     sigmaDot_2     sigmaDot_3  sigmaDot_1_v1  sigmaDot_1_v2  sigmaDot_1_v3  sigmaDot_2_v1  sigmaDot_2_v2  sigmaDot_2_v3  sigmaDot_3_v1  sigmaDot_3_v2  sigmaDot_3_v3            d_1            d_2            d_3         d_1_v1         d_1_v2         d_1_v3         d_2_v1         d_2_v2         d_2_v3         d_3_v1         d_3_v2         d_3_v3
ZONE I=2, J=2, K=2, DATAPACKING=POINT, STRANDID=5, SOLUTIONTIME=51
   5.000000e-03   5.000000e-03   5.253276e-03   1.575477e+03   6.820305e-01   3.406944e-01   3.072323e-01   3.520733e-01   6.662481e-03  -4.604990e-04   5.821204e-04  -3.169458e+02  -2.445948e+02  -3.733277e+02  -2.421904e+01   2.399066e+01  -2.609308e+01   9.327318e+00   2.151733e+01   8.478581e+00  -1.646153e+01   9.372477e+00   1.759792e+00   2.103289e+01  -1.246459e+01   1.054563e+01  -7.476196e+00   2.345210e+01   1.119762e+00   6.811721e+00   1.152224e+00   8.485489e+00   1.451306e+01  -1.296279e+01   1.103914e+01  -7.974403e+00   1.842058e+01   5.830079e-01   7.305228e+00   6.154667e-01   8.058316e-01   5.031425e+02  -8.532531e+02  -2.706260e-03  -3.349697e+02  -1.005460e+03   2.811399e-03  -8.425932e+01   1.687456e+02   1.988580e-02   7.724627e-01  -6.102998e-01   1.756004e-01  -6.221133e-01  -7.827600e-01   1.617925e-02  -1.275788e-01   1.217412e-01   9.843286e-01   6.077977e+02   1.328317e+03   1.914442e-02  -5.512471e+01  -6.376500e-03   1.871901e-03   1.862279e+05   8.837321e+05  -4.997947e-01  -5.336389e+04  -1.989466e+00   1.419008e+00   3.566532e+05   5.414513e+05  -4.157095e+01   1.431383e-01  -1.321305e+03  -3.874722e+00  -2.358169e+02  -2.171867e+01  -4.542443e+02   9.094886e+02   1.821406e-02   2.523974e-03  -7.832268e-04   1.697007e-02   2.352656e-03  -7.304758e-04  -9.427175e-05  -1.300377e-05   4.102579e-06   1.821406e-02   2.352656e-03   4.102579e-06   9.747020e-03  -4.387493e-04  -3.717398e-04  -7.223046e-03  -3.444775e-04  -3.587360e-04   5.507638e+02   3.694778e+01   3.789245e+01   3.095430e+01   1.462847e+03   1.462847e+03   2.515545e-02   2.297732e-02   1.023912e-02  -3.116228e+02   1.342452e+02  -3.842117e+02  -3.206647e+02  -2.299919e+02  -2.925472e-01   1.263990e-01   9.478604e-01  -9.018984e-01  -3.658924e-01  -2.295691e-01   3.177976e-01  -9.220337e-01   2.210399e-01  -4.074187e+00   1.240460e+01   3.099281e+01  -7.419304e-01  -4.400376e-01   5.058718e-01   3.565056e-01   3.800861e-01   8.534860e-01   5.678407e-01  -8.135733e-01   1.251216e-01  -2.291985e-03   8.341474e-08   2.286272e-02   4.272821e-01  -9.018248e-01  -6.435925e-02   4.956460e-02  -4.771292e-02   9.976306e-01   9.027587e-01   4.294596e-01  -2.431171e-02
   5.000000e-03   5.000000e-03   1.575983e-02   1.087368e+03   1.437076e+00   3.564787e-01   3.196542e-01   3.238671e-01  -1.130125e-02   2.350287e-02   3.392485e-04  -6.730460e+01  -7.669779e+01  -1.060239e+02   7.998284e+00   7.270345e-01   1.509207e+00   3.703716e+01   1.827862e+01   2.808449e+01  -1.115680e+01  -3.649541e+01   1.291530e+01   3.703737e+01  -1.149669e+01  -3.479580e+01  -1.081704e+01   1.827867e+01   1.476646e+01  -3.819505e+01   1.106423e+01   2.808459e+01   3.703722e+01  -1.149668e+01  -3.479579e+01  -1.081702e+01   1.827850e+01   1.476646e+01  -3.819505e+01   1.106424e+01   2.808435e+01   4.045325e+02  -1.217120e+03   1.976895e-02  -1.073970e+03   1.174091e+03  -1.298042e-03  -1.136228e+02  -8.644495e+02   2.675489e-02   6.245676e-03  -6.724523e-01  -7.401141e-01  -8.660895e-01   3.663227e-01  -3.401420e-01  -4.998499e-01  -6.431295e-01   5.801160e-01   9.894754e+02   1.804504e+03   1.331182e-03  -5.923744e+02  -1.212574e-02  -3.097603e-02   6.649840e+05   1.803571e+06  -4.994458e-01  -8.275410e+05   3.175638e+00  -2.435673e+01   8.228515e+05   1.422080e+06  -1.548502e+05  -3.270743e+04  -9.512095e+04  -7.116773e+04   1.213657e+05   5.577837e+04  -9.422619e+04   1.884534e+05   1.436483e-06  -5.848245e-07  -5.094243e-07  -1.734396e-07   3.158882e-07   4.502053e-07   5.533274e-07   5.713580e-08   4.587274e-07   1.436483e-06   3.158882e-07   4.587274e-07  -3.791320e-07   2.195158e-08   2.536706e-07  -2.056925e-07  -5.313759e-07   1.965348e-07   1.476045e+02   7.585412e+01   7.585432e+01   7.585411e+01   2.221961e+03   2.221961e+03   1.875482e-06   1.670582e-06   8.524032e-07  -8.334208e+01   3.773657e+01  -1.061041e+02  -8.124024e+01  -6.268196e+01   8.634192e-03   4.890976e-02  -9.987659e-01  -4.989122e-01   8.658153e-01   3.808612e-02   8.666095e-01   4.979676e-01   3.187729e-02  -5.950457e+00   1.414685e+01   7.520388e+01  -6.561627e-01   5.087128e-02  -7.529028e-01  -2.298519e-01  -9.637892e-01   1.351981e-01   7.187618e-01  -2.617681e-01  -6.440954e-01   4.804318e-08   6.076446e-07   1.555411e-06   2.326355e-01   8.218356e-01  -5.200644e-01  -1.985161e-01  -4.833519e-01  -8.526208e-01   9.520883e-01  -3.015911e-01  -5.070280e-02
   5.000000e-03   1.500000e-02   5.253276e-03   1.524977e+03   7.377309e-01   3.310621e-01   3.223508e-01   3.465871e-01  -4.643057e-04   1.403021e-03   1.549191e-02  -2.982777e+02  -2.536349e+02  -2.910351e+02  -7.148946e+00   2.963841e+01  -3.485018e+01  -2.242447e-01   3.926845e-01   3.049308e-01   2.925712e-01   3.848634e-01   6.554852e-01   1.845691e+00  -3.101082e+00  -1.151123e+00  -3.267169e+00   3.707716e-01   8.484419e-01  -1.158039e-01   8.124371e-01   2.400833e-01   8.310243e-01  -3.125401e+00  -1.050300e+00  -3.291487e+00  -4.920313e-01   7.298906e-01  -1.498134e-02   6.938850e-01  -7.499458e-01  -4.836588e+02   4.884099e+01  -1.250328e+00  -3.695549e+02   1.874902e+02  -1.065847e+00  -5.525319e+02  -5.913383e+02  -5.650639e-01  -6.535770e-01   2.624995e-01  -7.098811e-01  -5.572416e-01   4.678083e-01   6.860300e-01  -5.121708e-01  -8.439487e-01   1.594730e-01   8.050304e+02   5.995894e+02   6.626894e-02   1.664675e+02   1.700529e+00  -3.499376e-01   3.378936e+05   1.936090e+05   1.009324e+00   1.169115e+05   6.554186e+02   3.662043e+01   1.771679e+05   2.378075e+05  -6.511279e+01  -6.144464e+01  -2.835726e+00   6.375233e+01   1.479413e+01  -1.437464e+01  -4.313105e+01   8.726210e+01   3.172198e-03  -3.418880e-04  -3.077628e-03  -1.114527e-02   3.474276e-04  -5.566459e-04  -6.760079e-05  -3.497271e-06  -1.178741e-04   3.172198e-03   3.474276e-04  -1.178741e-04  -5.743580e-03  -1.572615e-03  -2.800716e-04   5.401692e-03  -1.505014e-03  -2.765743e-04   4.922294e+02   1.474656e+00   5.158603e+00   4.920844e+00   1.031024e+03   1.031024e+03   1.201323e-02   9.015430e-03   7.939752e-03  -2.809825e+02   9.030149e+01  -3.296488e+02  -2.873384e+02  -2.259604e+02  -6.262623e-01   2.754754e-01   7.293209e-01  -7.180951e-01  -5.680559e-01  -4.020596e-01  -3.035375e-01   7.755165e-01  -5.535695e-01  -9.410930e-01   2.125546e-02   1.393208e+00  -7.476007e-01  -1.871280e-01   6.372412e-01  -4.774864e-01   8.183462e-01  -3.198690e-01   4.616274e-01   5.434083e-01   7.011473e-01  -4.486445e-03   6.866540e-05   7.819531e-03   6.126348e-01   7.434688e-01   2.682028e-01   6.078288e-02   2.940161e-01  -9.538658e-01   7.880254e-01  -6.006736e-01  -1.349343e-01
   5.000000e-03   1.500000e-02   1.575983e-02   1.197247e+03   1.213411e+00   3.400249e-01   3.267264e-01   3.332488e-01   1.749904e-02   2.044070e-02   1.321021e-03  -1.011564e+02  -8.793679e+01  -1.335879e+02  -1.037778e+01  -9.173762e+00  -1.334799e+00  -7.209637e+00  -1.405406e+01   1.453000e+00   8.588112e+00   3.540654e+00  -1.759422e+00  -7.209644e+00   8.711806e+00   3.834810e+00   8.464464e+00  -1.405408e+01  -1.694502e+00   3.246524e+00  -1.824396e+00   1.453002e+00  -7.209624e+00   8.711808e+00   3.834812e+00   8.464466e+00  -1.405406e+01  -1.694502e+00   3.246526e+00  -1.824396e+00   1.453028e+00  -6.096971e+02  -5.982911e+01  -2.408663e-02  -7.429821e+02   1.051357e+03   2.363717e-03   3.660511e+02  -5.340476e+02   1.589548e-02  -8.956070e-01  -4.445734e-01  -1.557377e-02  -4.028823e-01   7.957807e-01   4.521272e-01   1.886104e-01  -4.112027e-01   8.918175e-01   9.144243e+02   1.082850e+03   1.561969e-02  -4.707169e+02   2.361791e-02   6.053011e-03   5.288726e+05   6.970689e+05  -4.995808e-01  -4.700754e+05   9.373954e+00  -2.281375e+00   4.086470e+05   6.863313e+05   5.595607e-03  -4.184843e+02  -1.629677e+03   1.439260e+01   2.838950e+01  -8.264495e+02  -6.827187e+02   1.366437e+03  -5.945753e-08   1.265071e-07   1.294170e-07   1.489309e-07  -1.444080e-07  -1.761590e-07  -3.113807e-08  -5.056543e-08   9.282076e-09  -5.945753e-08  -1.444080e-07   9.282076e-09   1.377190e-07   4.913947e-08  -1.133622e-07  -1.121187e-08   8.027754e-08  -6.279681e-08   1.902590e+02   2.075075e+01   2.075079e+01   2.075078e+01   1.565850e+03   1.565850e+03   3.375895e-07   3.048597e-07   1.450078e-07  -1.075604e+02   4.729004e+01  -1.363417e+02  -1.043131e+02  -8.202627e+01   2.749514e-01   8.534801e-02   9.576625e-01  -8.210461e-01  -4.974428e-01   2.800606e-01   5.002849e-01  -8.632881e-01  -6.669797e-02  -2.027508e+01  -2.160469e+00   2.624857e+00  -5.637625e-01   8.117562e-01   1.523929e-01  -7.308793e-01  -5.762510e-01   3.657187e-01  -3.846910e-01  -9.479774e-02  -9.181646e-01  -2.941789e-07   2.297801e-08   7.661744e-08   5.264957e-01  -7.649514e-01  -3.710142e-01   7.878105e-01   2.749053e-01   5.511639e-01   3.196198e-01   5.824744e-01  -7.473733e-01
   1.500000e-02   5.000000e-03   5.253276e-03   1.713035e+03   5.469623e-01   3.322066e-01   3.198984e-01   3.478950e-01   4.589113e-03  -1.144915e-02   2.026000e-02  -2.893866e+02  -2.591121e+02  -3.700156e+02   1.824226e+01  -3.894658e+00  -4.829844e+01  -4.897156e+01  -1.271711e+01  -1.101897e+02   9.065588e+01   7.535484e+00  -1.685778e+01  -4.898875e+01   9.315574e+01   6.828588e+01   8.846448e+01  -1.266921e+01   1.444057e+02  -5.287632e+01  -1.780568e+02  -1.101914e+02  -4.901016e+01   9.315708e+01   6.828559e+01   8.846583e+01  -1.268838e+01   1.444021e+02  -5.287661e+01  -1.780604e+02  -1.102188e+02  -7.241715e+00  -1.216627e+02  -2.038543e-02  -1.149853e+03   4.503988e+02   1.728024e-03   1.262906e+03  -8.441553e+02   1.515198e-02  -2.039290e-01  -4.244860e-01  -8.821704e-01  -8.860339e-01  -3.032120e-01   3.507228e-01   4.163616e-01  -8.531554e-01   3.142753e-01   1.546111e+03   6.352734e+02   2.335138e-02  -7.257319e+02   8.934795e-03  -4.797616e-03   1.458573e+06   4.651290e+05  -4.996759e-01  -7.915501e+05   8.648089e+00  -4.766088e+00   6.412337e+05   1.255213e+06  -7.130952e+02  -1.122935e+02  -9.006433e+01   2.837057e+02   2.542170e+02  -1.010696e+02  -3.051510e+02   6.113020e+02  -1.853090e-06   5.249797e-04   3.899455e-04   2.066713e-06   8.162678e-05   5.868123e-05   5.687360e-07   2.649264e-05  -5.804122e-06  -1.853090e-06   8.162678e-05  -5.804122e-06   2.635232e-04   1.952571e-04   4.258693e-05   2.614565e-04   1.946884e-04   1.609430e-05   5.414394e+02   3.019318e+02   3.020308e+02   3.020463e+02   1.961480e+03   1.961480e+03   6.622018e-04   4.748337e-04   4.615671e-04  -3.061714e+02   1.337847e+02  -3.881738e+02  -2.955484e+02  -2.347921e+02   2.852624e-02  -3.538302e-01  -9.348746e-01  -9.468513e-01   2.902169e-01  -1.387326e-01   3.204041e-01   8.891448e-01  -3.267458e-01  -2.468576e+02  -9.594303e+01   1.709223e+02   6.709113e-02  -6.199332e-01  -7.817811e-01  -9.038481e-01   2.940806e-01  -3.107654e-01   4.225605e-01   7.274609e-01  -5.405952e-01  -2.878803e-04  -1.544754e-05   3.772974e-04   7.517689e-01  -4.845990e-01  -4.472219e-01   9.056144e-02  -5.959008e-01   7.979354e-01   6.531785e-01   6.403640e-01   4.040937e-01
   1.500000e-02   5.000000e-03   1.575983e-02   1.115058e+03   1.376559e+00   3.330019e-01   3.613500e-01   3.056481e-01   1.096332e-02   3.956543e-03   2.199392e-03  -1.121759e+02  -1.197186e+02  -1.337176e+02  -1.700997e+00   9.971692e-01   1.533453e+01  -2.072554e+01  -2.687679e+01   2.926362e+01  -1.879194e+01  -4.356532e+00   6.587288e+00  -2.072559e+01  -2.405753e+01   8.859143e+00  -1.352666e+01  -2.687670e+01   3.219943e+00  -1.757295e+01   9.955320e+00   2.926385e+01  -2.072574e+01  -2.405753e+01   8.859144e+00  -1.352666e+01  -2.687686e+01   3.219964e+00  -1.757295e+01   9.955340e+00   2.926367e+01  -1.124083e+03   1.271325e+03   1.067151e+01   5.422837e+02  -2.595663e+02  -1.056540e+01   1.155394e+03   5.020247e+02   3.861076e+00  -5.138166e-01   8.180652e-01  -2.583831e-01   3.000325e-01  -1.108089e-01  -9.474713e-01   8.037244e-01   5.643498e-01   1.885107e-01   1.668894e+03   1.352107e+03   7.980928e+00  -3.276168e+02  -5.549920e+00   1.207973e+01   1.446285e+06   9.678349e+05   1.197083e+02  -4.948988e+05  -6.632022e+03   9.123866e+03   8.047466e+05   1.024922e+06   4.994273e-01   4.927722e-01   4.997233e-01  -2.034181e-03   3.976825e-04   1.413318e-03   4.973076e-01   5.384273e-03  -2.320739e-07  -1.750076e-06  -2.632754e-06   1.809002e-07   5.966139e-07   1.791752e-06  -4.116681e-07   1.077917e-06   9.900217e-07  -2.320739e-07   5.966139e-07   9.900217e-07  -7.845878e-07  -1.522211e-06   1.434835e-06  -9.654879e-07  -1.110543e-06   3.569173e-07   2.127779e+02   5.715546e+01   5.715579e+01   5.715584e+01   2.197381e+03   2.197381e+03   3.994820e-06   3.372367e-06   2.141430e-06  -1.218707e+02   3.279553e+01  -1.436727e+02  -1.123912e+02  -1.095482e+02  -5.579222e-02  -5.411152e-01   8.390957e-01  -9.417507e-01  -2.506361e-01  -2.242478e-01  -3.316516e-01   8.027303e-01   4.956121e-01  -3.786430e+01  -1.821636e+01   3.774195e+01  -6.555894e-01  -7.527308e-01  -5.998963e-02  -6.812732e-01   6.238730e-01  -3.829481e-01   3.256828e-01  -2.101874e-01  -9.218199e-01  -1.283239e-06  -4.484655e-07   3.086266e-06  -7.792047e-01   1.409300e-01  -6.107199e-01  -4.338577e-01  -8.244926e-01   3.632897e-01   4.523356e-01  -5.480426e-01  -7.035921e-01
   1.500000e-02   1.500000e-02   5.253276e-03   1.596827e+03   6.595413e-01   3.124887e-01   3.303939e-01   3.571174e-01  -1.713518e-03   9.966923e-03   2.067838e-02  -3.144044e+02  -3.491596e+02  -3.556913e+02  -4.058044e+01   1.809759e+01   2.119027e+01  -1.171006e+01  -4.971611e+00  -1.610014e+01  -3.085508e+00  -2.190858e+00  -8.297381e-01  -2.832373e+01   5.073951e+01   9.763661e+00   5.334460e+01  -2.246281e+00  -4.173430e+01   9.184866e+00  -4.214879e+01  -1.353335e+01  -1.441269e+01   5.253510e+01   8.962975e+00   5.514003e+01   1.320252e+01  -4.267162e+01   8.384071e+00  -4.308663e+01   2.204452e+00   5.947142e+02  -2.656770e+02   4.563237e-03  -1.211625e+03   1.017809e+03  -4.879468e-03  -8.195414e+02   7.715711e+02   9.124572e-03   8.192145e-01   5.105335e-01  -2.612341e-01  -5.464941e-01   5.568531e-01  -6.255068e-01  -1.738731e-01   6.551871e-01   7.351857e-01   1.291840e+03   9.366565e+02   8.568322e-03  -9.080285e+02   4.818353e-03   5.590840e-03   1.246683e+06   8.509201e+05  -4.999361e-01  -1.011769e+06   5.739713e-01   4.307716e-01   6.992009e+05   1.380578e+06  -4.644276e+02  -2.664365e+03  -3.680642e+03  -1.113090e+03   1.308229e+03   3.132051e+03  -2.269811e+03   4.540623e+03  -2.772293e-02   9.583024e-03  -1.132300e-03   1.647478e-01  -2.185838e-02  -1.089741e-01   3.820992e-02  -3.636814e-03   5.335625e-03  -2.772293e-02  -2.185838e-02   5.335625e-03   8.716541e-02   1.853881e-02  -5.630545e-02  -7.758239e-02  -1.967111e-02  -5.266864e-02   5.934016e+02   2.132416e+01   1.005412e+02   1.000760e+02   2.048221e+03   2.048221e+03   2.045931e-01   1.532919e-01   1.354988e-01  -3.397518e+02   9.353071e+01  -3.952955e+02  -3.365191e+02  -2.874407e+02  -4.662162e-01  -6.735622e-01   5.735473e-01   2.678324e-01   5.104276e-01   8.171471e-01  -8.431538e-01   5.345818e-01  -5.756784e-02  -1.744666e+01  -1.082198e+01  -4.513163e+00   4.283739e-01   1.354916e-01   8.933856e-01   8.743979e-01   1.871701e-01  -4.476557e-01   2.278686e-01  -9.729385e-01   3.829479e-02  -1.325508e-01   1.229515e-02   7.601001e-02  -6.326912e-01   6.834458e-01   3.641479e-01  -5.637073e-01  -8.403982e-02  -8.216881e-01   5.309764e-01   7.251477e-01  -4.384346e-01
   1.500000e-02   1.500000e-02   1.575983e-02   1.193231e+03   1.220861e+00   3.295687e-01   3.120910e-01   3.583403e-01  -1.015338e-02  -9.363665e-03  -6.333301e-03  -7.721187e+01  -7.537354e+01  -1.001887e+02   4.680616e-01   1.206002e+01   4.094223e+00   3.829409e+00   2.404815e-01   4.838110e+00   1.689059e+00   1.281131e-01   7.118613e+00   3.829421e+00   1.329373e+00  -6.489440e-01   2.048679e+00   2.404766e-01   6.811105e+00   9.051829e-01   7.426185e+00   4.838146e+00   3.829402e+00   1.329373e+00  -6.489410e-01   2.048679e+00   2.404577e-01   6.811106e+00   9.051860e-01   7.426186e+00   4.838121e+00  -6.868624e+02   6.663999e+02  -2.046772e-02  -8.595599e+02   5.223412e+02  -1.319020e-02   4.212961e+02  -3.533681e+02   1.196912e-02  -9.087298e-02   9.288243e-01   3.592039e-01  -9.737723e-01  -1.584258e-01   1.633060e-01   2.085898e-01  -3.349427e-01   9.188600e-01   9.873109e+02   6.545742e+02   1.491818e-03  -6.429081e+02   1.720085e-02  -2.093021e-02   6.940563e+05   4.208986e+05  -4.996319e-01  -5.277906e+05   1.521941e+01  -1.237949e+01   3.716515e+05   7.310363e+05  -2.903854e+04  -5.999211e+03  -1.899748e+05  -1.319946e+04  -7.427449e+04  -3.376088e+04  -7.500417e+04   1.500093e+05   1.007702e-07   7.837370e-08   1.661533e-07  -4.441910e-07  -1.555789e-08   3.636260e-07  -8.780740e-08  -1.278559e-07   1.655688e-07   1.007702e-07  -1.555789e-08   1.655688e-07  -1.829086e-07   3.917295e-08   1.178850e-07   2.612823e-07   1.269803e-07   2.457410e-07   1.483424e+02   1.211912e+01   1.211916e+01   1.211915e+01   1.493289e+03   1.493289e+03   6.520321e-07   3.682169e-07   5.381098e-07  -8.425804e+01   3.257043e+01  -1.057795e+02  -7.599385e+01  -7.100082e+01  -3.846011e-01  -1.173661e-01   9.155912e-01  -4.622008e-01   8.830725e-01  -8.095335e-02  -7.990322e-01  -4.543217e-01  -3.938773e-01  -5.372483e+00   3.423490e+00   1.085699e+01  -1.231198e-01   8.077332e-01  -5.765489e-01  -9.551429e-01   6.122837e-02   2.897467e-01   2.693392e-01   5.863601e-01   7.639622e-01  -1.891485e-07   1.809942e-07   2.589356e-07  -5.361644e-01  -7.815386e-01   3.189437e-01  -6.136861e-01   1.014702e-01  -7.830027e-01  -5.795836e-01   6.155495e-01   5.340241e-01
