     VARIABLES=
              x              y              z      nomin_den    nomin_voidr      fabric_xx      fabric_yy      fabric_zz      fabric_xy      fabric_xz      fabric_yz       sigma_xx       sigma_yy       sigma_zz       sigma_xy       sigma_xz       sigma_yz    sigmaDot_xx    sigmaDot_yy    sigmaDot_zz    sigmaDot_xy    sigmaDot_xz    sigmaDot_yz       Oldro_xx       Oldro_xy       Oldro_xz       Oldro_yx       Oldro_yy       Oldro_yz       Oldro_zx       Oldro_zy       Oldro_zz       Trues_xx       Trues_xy       Trues_xz       Trues_yx       Trues_yy       Trues_yz       Trues_zx       Trues_zy       Trues_zz           F_xX           F_xY           F_xZ           F_yX           F_yY           F_yZ           F_zX           F_zY           F_zZ           R_xX           R_xY           R_xZ           R_yX           R_yY           R_yZ           R_zX           R_zY           R_zZ           U_xX           U_yY           U_zZ           U_xY           U_xZ           U_yZ       Green_xx       Green_yy       Green_zz       Green_xy       Green_xz       Green_yz      Green_vol      Green_shr       Euler_xx       Euler_yy       Euler_zz       Euler_xy       Euler_xz       Euler_yz      Euler_vol      Euler_shr           l_xx           l_xy           l_xz           l_yx           l_yy           l_yz           l_zx           l_zy           l_zz           d_xx           d_yy           d_zz           d_xy           d_xz           d_yz           w_xy           w_xz           w_yz     norm_sigma  norm_sigmaDot     norm_Oldro     norm_Trues         norm_F         norm_U         norm_l         norm_d         norm_w              p              q        sigma_1        sigma_2        sigma_3     sigma_1_v1     sigma_1_v2     sigma_1_v3     sigma_2_v1     sigma_2_v2     sigma_2_v3     sigma_3_v1     sigma_3_v2     sigma_3_v3     sigmaDot_1     sigmaDot_2     sigmaDot_3  sigmaDot_1_v1  sigmaDot_1_v2  sigmaDot_1_v3  sigmaDot_2_v1  sigmaDot_2_v2  sigmaDot_2_v3  sigmaDot_3_v1  sigmaDot_3_v2  sigmaDot_3_v3            d_1            d_2            d_3         d_1_v1         d_1_v2         d_1_v3         d_2_v1         d_2_v2         d_2_v3         d_3_v1         d_3_v2         d_3_v3
ZONE I=2, J=2, K=2, DATAPACKING=POINT, STRANDID=5, SOLUTIONTIME=39
   5.000000e-03   5.000000e-03   5.253276e-03   1.575477e+03   6.820305e-01   3.406769e-01   3.072656e-01   3.520575e-01   6.658274e-03  -4.510637e-04   5.982454e-04  -3.169235e+02  -2.445343e+02  -3.733767e+02  -2.418465e+01   2.391501e+01  -2.606553e+01  -2.677965e+01   7.034236e+00  -4.899204e+00  -2.259473e+00   2.202913e-01   2.948679e-01  -3.801788e+01  -8.510110e+00   2.666343e+00  -8.220514e+00   5.222292e+00   6.316168e-01  -1.020489e+00   1.103254e+00  -4.891364e+00  -3.177810e+01  -8.033949e+00   2.195489e+00  -7.744350e+00   1.003684e+01   1.144811e+00  -1.491343e+00   1.616448e+00   2.459910e+00   5.033123e+02  -8.525619e+02  -2.719181e-03  -3.370027e+02  -1.007257e+03   2.799496e-03  -8.344920e+01   1.694682e+02   1.989218e-02   7.726933e-01  -6.101946e-01   1.749505e-01  -6.221008e-01  -7.827406e-01   1.754271e-02  -1.262364e-01   1.223920e-01   9.844209e-01   6.090900e+02   1.329391e+03   1.915566e-02  -5.354620e+01  -6.353778e-03   1.902593e-03   1.869284e+05   8.850739e+05  -4.997945e-01  -5.189916e+04  -1.986011e+00   1.434774e+00   3.573339e+05   5.419855e+05  -4.121110e+01   8.092347e-02  -1.320002e+03  -4.180922e+00  -2.346904e+02  -2.352425e+01  -4.537107e+02   9.084215e+02  -1.748833e-02  -2.425228e-03   7.526889e-04  -1.590209e-02  -2.205174e-03   6.849936e-04  -1.039509e-04  -1.482790e-05   4.874983e-06  -1.748833e-02  -2.205174e-03   4.874983e-06  -9.163657e-03   3.243690e-04   3.350828e-04   6.738429e-03   4.283199e-04   3.499107e-04   5.507451e+02   2.842646e+01   4.057491e+01   3.538536e+01   1.464243e+03   1.464243e+03   2.388534e-02   2.188800e-02   9.561624e-03  -3.116115e+02   1.342478e+02  -3.842069e+02  -3.206450e+02  -2.299825e+02  -2.915541e-01   1.264607e-01   9.481581e-01  -9.024154e-01  -3.651033e-01  -2.287928e-01   3.172423e-01  -9.223380e-01   2.205675e-01  -2.702527e+01  -4.818386e+00   7.199040e+00   9.955864e-01   6.069831e-02   7.157840e-02   6.815209e-02   5.675664e-02  -9.960592e-01  -6.452167e-02   9.965412e-01   5.236942e-02  -2.178720e-02   3.883016e-07   2.098189e-03   9.054203e-01   4.240450e-01  -1.999720e-02  -5.170190e-02   6.339369e-02  -9.966485e-01  -4.213561e-01   9.034197e-01   7.932187e-02
   5.000000e-03   5.000000e-03   1.575983e-02   1.087368e+03   1.437076e+00   3.564787e-01   3.196542e-01   3.238671e-01  -1.130126e-02   2.350286e-02   3.392459e-04  -6.728675e+01  -7.685580e+01  -1.060267e+02   8.016983e+00   7.034603e-01   1.496897e+00  -9.121125e+00   3.229910e+00  -1.923029e+01  -8.875668e+00   3.035564e+00  -7.061223e-01  -9.121190e+00  -2.718232e+00   1.381101e+00  -1.503303e+01   3.229925e+00  -1.296842e+00   4.690152e+00  -1.154894e-01  -1.923030e+01  -9.121163e+00  -2.718235e+00   1.381101e+00  -1.503304e+01   3.229956e+00  -1.296842e+00   4.690152e+00  -1.154900e-01  -1.923026e+01   4.045324e+02  -1.217120e+03   1.976895e-02  -1.073970e+03   1.174091e+03  -1.298038e-03  -1.136228e+02  -8.644495e+02   2.675489e-02   6.245659e-03  -6.724524e-01  -7.401141e-01  -8.660895e-01   3.663227e-01  -3.401420e-01  -4.998499e-01  -6.431294e-01   5.801160e-01   9.894754e+02   1.804504e+03   1.331180e-03  -5.923744e+02  -1.212574e-02  -3.097603e-02   6.649840e+05   1.803571e+06  -4.994458e-01  -8.275409e+05   3.175634e+00  -2.435672e+01   8.228515e+05   1.422080e+06  -1.548175e+05  -3.270054e+04  -9.510090e+04  -7.115272e+04   1.213401e+05   5.576661e+04  -9.420632e+04   1.884136e+05  -4.602765e-07   1.912222e-07   2.003478e-07   2.723064e-07   1.190092e-07  -3.307228e-07   6.106679e-07  -4.019953e-08  -6.722071e-08  -4.602765e-07   1.190092e-07  -6.722071e-08   2.317643e-07   4.055078e-07  -1.854612e-07  -4.054208e-08  -2.051601e-07  -1.452616e-07   1.476821e+02   2.687773e+01   2.687776e+01   2.687773e+01   2.221961e+03   2.221961e+03   9.302156e-07   8.576891e-07   3.600979e-07  -8.338975e+01   3.771830e+01  -1.061057e+02  -8.137064e+01  -6.269295e+01   7.996605e-03   4.892148e-02  -9.987706e-01  -4.957845e-01   8.675906e-01   3.852659e-02   8.684088e-01   4.948669e-01   3.119229e-02  -2.314787e+01  -1.550691e+01   1.353328e+01  -6.071623e-01  -3.428932e-01   7.167832e-01   5.607692e-01   4.541861e-01   6.922809e-01   5.629314e-01  -8.222768e-01   8.348074e-02  -8.082566e-07   1.649254e-07   2.348433e-07   8.018823e-01  -3.033760e-01  -5.147308e-01   5.906332e-01   5.325618e-01   6.062428e-01  -9.020641e-02   7.901525e-01  -6.062358e-01
   5.000000e-03   1.500000e-02   5.253276e-03   1.524977e+03   7.377309e-01   3.310633e-01   3.223465e-01   3.465902e-01  -4.725352e-04   1.402561e-03   1.548229e-02  -2.982316e+02  -2.535926e+02  -2.909626e+02  -7.169327e+00   2.962478e+01  -3.487144e+01  -3.280100e+00  -6.186185e+00  -1.708738e+00   3.556539e+00  -8.184187e-01   6.456720e-01  -3.576533e+00   4.345681e+00   8.779996e-01   4.290146e+00  -6.315573e+00   5.780372e-02   5.980065e-01   4.883026e-01  -1.618235e+00  -3.587246e+00   4.345424e+00   8.790638e-01   4.289888e+00  -6.324683e+00   5.655109e-02   5.990707e-01   4.870500e-01  -1.628687e+00  -4.836273e+02   4.884299e+01  -1.250150e+00  -3.695851e+02   1.874585e+02  -1.066319e+00  -5.524703e+02  -5.912713e+02  -5.651633e-01  -6.535564e-01   2.624879e-01  -7.099043e-01  -5.572820e-01   4.677857e-01   6.860126e-01  -5.121531e-01  -8.439648e-01   1.594446e-01   8.049902e+02   5.995233e+02   6.586629e-02   1.664326e+02   1.700734e+00  -3.499800e-01   3.378555e+05   1.935635e+05   1.009660e+00   1.168781e+05   6.554690e+02   3.660663e+01   1.771400e+05   2.377663e+05  -6.598303e+01  -6.225902e+01  -2.878542e+00   6.459419e+01   1.498718e+01  -1.456139e+01  -4.370687e+01   8.841373e+01   1.892126e-05   3.963177e-04   5.289528e-03   1.486970e-03  -1.401428e-04  -1.141779e-03   2.911219e-05   1.122230e-05   1.571429e-04   1.892126e-05  -1.401428e-04   1.571429e-04   9.416438e-04   2.659320e-03  -5.652785e-04  -5.453261e-04   2.630208e-03  -5.765008e-04   4.921388e+02   8.919220e+00   9.693158e+00   9.704662e+00   1.030943e+03   1.030943e+03   5.629972e-03   4.074448e-03   3.885287e-03  -2.809289e+02   9.031140e+01  -3.295781e+02  -2.873235e+02  -2.258853e+02  -6.262162e-01   2.756134e-01   7.293083e-01  -7.181209e-01  -5.681309e-01  -4.019075e-01  -3.035715e-01   7.754125e-01  -5.536965e-01  -8.770543e+00  -1.625613e+00  -7.788668e-01   5.537495e-01  -8.142116e-01   1.744163e-01   2.446416e-01   3.593008e-01   9.005850e-01  -7.959347e-01  -4.560290e-01   3.981527e-01  -2.976596e-03   2.406818e-04   2.771836e-03  -6.806914e-01   3.538131e-01   6.414636e-01   1.879689e-01   9.306738e-01  -3.138694e-01  -7.080444e-01  -9.307295e-02  -7.000075e-01
   5.000000e-03   1.500000e-02   1.575983e-02   1.197247e+03   1.213411e+00   3.401010e-01   3.266121e-01   3.332869e-01   1.708068e-02   1.988487e-02   1.353986e-03  -1.009613e+02  -8.770603e+01  -1.334432e+02  -1.025940e+01  -9.292569e+00  -1.426406e+00   1.138816e+00  -1.953715e+00   1.984412e+00   5.060437e+00   2.299817e+00  -1.850921e+00   1.138820e+00   5.184639e+00   2.254969e+00   4.936227e+00  -1.953726e+00  -1.728027e+00   2.344689e+00  -1.973817e+00   1.984423e+00   1.138821e+00   5.184639e+00   2.254969e+00   4.936227e+00  -1.953725e+00  -1.728027e+00   2.344689e+00  -1.973817e+00   1.984424e+00  -5.672224e+02  -1.794591e+02  -2.406269e-02  -7.768846e+02   1.172323e+03   2.710257e-03   4.111772e+02  -6.694687e+02   1.615247e-02  -8.747853e-01  -4.827534e-01  -4.122900e-02  -4.386056e-01   7.528773e-01   4.907146e-01   2.058537e-01  -4.473532e-01   8.703444e-01   9.215861e+02   1.268739e+03   1.638026e-02  -4.950117e+02   2.318600e-02   6.430974e-03   5.471783e+05   9.273666e+05  -4.995764e-01  -5.421182e+05   9.092433e+00  -1.659005e+00   4.915148e+05   8.256055e+05  -2.661856e+00  -4.482852e+02  -1.411263e+03   3.766953e+01   6.681159e+01  -7.959762e+02  -6.207366e+02   1.242473e+03   1.416772e-08  -3.950423e-08   9.875316e-08   1.719312e-09  -6.413678e-08  -5.161917e-08  -2.135427e-08   6.585696e-08   4.061193e-08   1.416772e-08  -6.413678e-08   4.061193e-08  -1.889246e-08   3.869945e-08   7.118895e-09  -2.061177e-08   6.005371e-08  -5.873806e-08   1.899471e+02   8.818337e+00   8.818344e+00   8.818345e+00   1.717292e+03   1.717292e+03   1.572800e-07   9.886395e-08   1.223230e-07  -1.073702e+02   4.735222e+01  -1.362625e+02  -1.039391e+02  -8.190880e+01   2.770592e-01   8.665643e-02   9.569372e-01  -8.218515e-01  -4.945910e-01   2.827364e-01   4.977935e-01  -8.647950e-01  -6.581225e-02  -6.617321e+00   2.783206e+00   5.003628e+00   5.758007e-01  -7.485920e-01  -3.287302e-01  -7.329191e-02  -4.477143e-01   8.911679e-01  -8.142984e-01  -4.890418e-01  -3.126599e-01  -7.095545e-08  -6.898507e-09   6.849683e-08   2.819372e-01   9.463040e-01  -1.581775e-01  -7.573417e-01   3.207209e-01   5.688335e-01   5.890203e-01  -4.058089e-02   8.070987e-01
   1.500000e-02   5.000000e-03   5.253276e-03   1.713035e+03   5.469623e-01   3.321893e-01   3.199200e-01   3.478907e-01   4.592167e-03  -1.143222e-02   2.027256e-02  -2.892490e+02  -2.589229e+02  -3.697638e+02   1.823946e+01  -3.785639e+00  -4.825796e+01  -1.092090e+01  -3.844987e+01  -2.630383e+02  -3.308413e+02  -2.281924e+02  -3.158842e+02  -1.092962e+01  -1.265733e+02  -2.416940e+02  -5.349484e+02  -3.842629e+01   5.391963e+01  -2.145149e+02  -6.856421e+02  -2.630385e+02  -1.093948e+01  -1.265727e+02  -2.416942e+02  -5.349478e+02  -3.843512e+01   5.391798e+01  -2.145150e+02  -6.856438e+02  -2.630511e+02  -7.265489e+00  -1.216392e+02  -2.038521e-02  -1.149842e+03   4.503864e+02   1.728067e-03   1.262874e+03  -8.441224e+02   1.515194e-02  -2.039292e-01  -4.244614e-01  -8.821822e-01  -8.860369e-01  -3.032155e-01   3.507122e-01   4.163551e-01  -8.531664e-01   3.142539e-01   1.546088e+03   6.352439e+02   2.335108e-02  -7.257079e+02   8.934598e-03  -4.798374e-03   1.458520e+06   4.650928e+05  -4.996759e-01  -7.915049e+05   8.648051e+00  -4.766079e+00   6.412040e+05   1.255156e+06  -7.131323e+02  -1.122895e+02  -9.005429e+01   2.837080e+02   2.542095e+02  -1.010622e+02  -3.051587e+02   6.113174e+02  -4.261841e-07   2.745414e-04   2.035331e-04   4.049077e-07   3.977631e-05   3.100653e-05   4.917496e-07   3.803366e-05  -5.270718e-06  -4.261841e-07   3.977631e-05  -5.270718e-06   1.374732e-04   1.020124e-04   3.452009e-05   1.370683e-04   1.015207e-04  -3.513563e-06   5.410943e+02   9.750068e+02   9.748954e+02   9.748999e+02   1.961435e+03   1.961435e+03   3.475877e-04   2.502083e-04   2.412737e-04  -3.059786e+02   1.336694e+02  -3.879049e+02  -2.953781e+02  -2.346527e+02   2.960827e-02  -3.538467e-01  -9.348347e-01  -9.470251e-01   2.892842e-01  -1.394921e-01   3.197918e-01   8.894420e-01  -3.265365e-01  -1.095478e+03   1.008383e+02   6.822310e+02  -4.389550e-01  -6.347166e-01  -6.359665e-01  -7.765756e-01  -8.801338e-02   6.238462e-01   4.519391e-01  -7.677164e-01   4.542715e-01  -1.458204e-04  -2.220770e-05   2.021075e-04   7.608000e-01  -4.828846e-01  -4.335964e-01   7.151544e-02  -6.016647e-01   7.955408e-01   6.450341e-01   6.362562e-01   4.232128e-01
   1.500000e-02   5.000000e-03   1.575983e-02   1.115058e+03   1.376559e+00   3.330019e-01   3.613500e-01   3.056481e-01   1.096332e-02   3.956541e-03   2.199389e-03  -1.124017e+02  -1.196845e+02  -1.337107e+02  -1.931075e+00   1.097253e+00   1.550071e+01  -1.776226e+01   3.039331e+01  -4.773354e+01  -2.808966e-01  -3.081638e+01   4.035912e+01  -1.776224e+01   1.217568e+01  -3.106065e+01  -1.273772e+01   3.039341e+01   6.198780e+01  -3.057259e+01   1.873044e+01  -4.773367e+01  -1.776224e+01   1.217568e+01  -3.106065e+01  -1.273772e+01   3.039341e+01   6.198780e+01  -3.057259e+01   1.873044e+01  -4.773367e+01  -1.124083e+03   1.271325e+03   1.067151e+01   5.422837e+02  -2.595663e+02  -1.056540e+01   1.155394e+03   5.020247e+02   3.861076e+00  -5.138166e-01   8.180652e-01  -2.583831e-01   3.000325e-01  -1.108089e-01  -9.474713e-01   8.037244e-01   5.643498e-01   1.885107e-01   1.668894e+03   1.352107e+03   7.980928e+00  -3.276168e+02  -5.549919e+00   1.207973e+01   1.446285e+06   9.678349e+05   1.197083e+02  -4.948988e+05  -6.632021e+03   9.123865e+03   8.047466e+05   1.024922e+06   4.994273e-01   4.927722e-01   4.997233e-01  -2.034181e-03   3.976825e-04   1.413318e-03   4.973076e-01   5.384273e-03   7.778416e-08  -1.506655e-06  -2.492762e-06   1.606956e-07   4.747516e-07   4.982153e-07   6.526448e-07  -5.663841e-07  -5.523711e-07   7.778416e-08   4.747516e-07  -5.523711e-07  -6.729795e-07  -9.200587e-07  -3.408439e-08  -8.336751e-07  -1.572703e-06   5.322997e-07   2.129025e+02   9.960408e+01   9.960432e+01   9.960432e+01   2.197381e+03   2.197381e+03   3.168786e-06   1.771354e-06   2.627453e-06  -1.219323e+02   3.297811e+01  -1.438346e+02  -1.126349e+02  -1.093274e+02  -6.258045e-02  -5.426407e-01   8.376305e-01  -9.426753e-01  -2.435094e-01  -2.281807e-01  -3.277910e-01   8.038932e-01   4.962950e-01  -6.770765e+01  -9.166576e+00   4.177174e+01  -5.009960e-01   9.910339e-02  -8.597567e-01  -7.932783e-01  -4.497420e-01   4.104165e-01   3.459950e-01  -8.876433e-01  -3.039355e-01  -1.315891e-06   1.383523e-07   1.177703e-06  -6.137600e-01  -2.449563e-01  -7.505298e-01  -3.930637e-01  -7.296420e-01   5.595743e-01  -6.846894e-01   6.384504e-01   3.515417e-01
   1.500000e-02   1.500000e-02   5.253276e-03   1.596827e+03   6.595413e-01   3.125708e-01   3.302665e-01   3.571627e-01  -1.734876e-03   1.043388e-02   2.099329e-02  -3.140250e+02  -3.486287e+02  -3.553018e+02  -4.052351e+01   1.805880e+01   2.115970e+01  -7.580084e+00  -5.690509e+00  -1.037879e+01  -3.507636e+00   5.788885e+00   5.357215e+00   5.564426e+00  -8.377903e+01   4.209989e-01  -8.419638e+01  -5.380814e+01   6.141870e+01   2.920205e+00   5.865133e+01  -2.004229e+01   1.345777e+01  -8.276039e+01  -3.289240e-02  -8.317782e+01  -4.504500e+01   6.088695e+01   2.466243e+00   5.811933e+01  -1.111141e+01   5.921707e+02  -2.635096e+02   4.542399e-03  -1.216257e+03   1.022662e+03  -4.802451e-03  -8.189307e+02   7.710156e+02   9.130715e-03   8.185165e-01   5.125613e-01  -2.594450e-01  -5.473573e-01   5.586738e-01  -6.231240e-01  -1.744442e-01   6.520463e-01   7.378379e-01   1.293286e+03   9.390075e+02   8.551008e-03  -9.099477e+02   4.753885e-03   5.598904e-03   1.250296e+06   8.548695e+05  -4.999365e-01  -1.015635e+06   5.267324e-01   4.658370e-01   7.017217e+05   1.385600e+06  -4.599322e+02  -2.654775e+03  -3.722218e+03  -1.105701e+03   1.309221e+03   3.144016e+03  -2.278975e+03   4.558950e+03   2.360312e-02  -9.318469e-03   2.558848e-02  -2.350480e-01  -3.333851e-02   1.375767e-01  -4.306125e-02   6.498475e-03  -1.540064e-02   2.360312e-02  -3.333851e-02  -1.540064e-02  -1.221833e-01  -8.736381e-03   7.203759e-02   1.128648e-01   3.432486e-02   6.553911e-02   5.926424e+02   1.880504e+01   1.570251e+02   1.522912e+02   2.051910e+03   2.051910e+03   2.805687e-01   2.056568e-01   1.908509e-01  -3.393185e+02   9.338777e+01  -3.947635e+02  -3.361211e+02  -2.870709e+02  -4.662035e-01  -6.729417e-01   5.742855e-01   2.689328e-01   5.106241e-01   8.166628e-01  -8.428105e-01   5.351752e-01  -5.707866e-02  -1.846421e+01  -3.446890e+00  -1.738279e+00   5.902042e-01   3.913174e-01  -7.060663e-01   9.516632e-02  -9.022812e-01  -4.205139e-01  -8.016248e-01   1.809954e-01  -5.697704e-01  -1.509961e-01  -1.314402e-02   1.390041e-01  -5.189070e-01  -7.683104e-01   3.747461e-01   4.952266e-01   8.713616e-02   8.643830e-01   6.967684e-01  -6.341186e-01  -3.352722e-01
   1.500000e-02   1.500000e-02   1.575983e-02   1.193231e+03   1.220861e+00   3.295687e-01   3.120910e-01   3.583403e-01  -1.015338e-02  -9.363665e-03  -6.333302e-03  -7.719059e+01  -7.533626e+01  -1.001826e+02   4.748276e-01   1.207816e+01   4.108256e+00  -9.087956e-01  -1.010863e+01   2.454464e-01  -1.788396e+00  -7.530070e-02  -6.567439e+00  -9.087902e-01  -1.725505e+00  -5.372961e-02  -1.851285e+00  -1.010867e+01  -6.351193e+00  -9.688961e-02  -6.783794e+00   2.454479e-01  -9.087685e-01  -1.725505e+00  -5.373301e-02  -1.851285e+00  -1.010865e+01  -6.351195e+00  -9.689301e-02  -6.783795e+00   2.454761e-01  -6.868624e+02   6.663999e+02  -2.046772e-02  -8.595599e+02   5.223412e+02  -1.319020e-02   4.212961e+02  -3.533681e+02   1.196912e-02  -9.087297e-02   9.288243e-01   3.592039e-01  -9.737723e-01  -1.584258e-01   1.633060e-01   2.085898e-01  -3.349427e-01   9.188600e-01   9.873109e+02   6.545742e+02   1.491819e-03  -6.429081e+02   1.720085e-02  -2.093021e-02   6.940563e+05   4.208986e+05  -4.996319e-01  -5.277906e+05   1.521941e+01  -1.237949e+01   3.716515e+05   7.310363e+05  -2.900582e+04  -5.992451e+03  -1.897607e+05  -1.318459e+04  -7.419079e+04  -3.372284e+04  -7.491966e+04   1.498403e+05   1.411132e-08   4.380154e-08  -1.321810e-07  -1.151345e-07  -3.087897e-07  -5.370133e-07   6.248102e-08  -4.136483e-08   1.328640e-08   1.411132e-08  -3.087897e-07   1.328640e-08  -3.566647e-08  -3.485001e-08  -2.891891e-07   7.946801e-08  -9.733103e-08  -2.478242e-07   1.483121e+02   1.399441e+01   1.399449e+01   1.399448e+01   1.493289e+03   1.493289e+03   6.499010e-07   5.176491e-07   3.929513e-07  -8.423649e+01   3.261382e+01  -1.057858e+02  -7.596640e+01  -7.095723e+01  -3.847450e-01  -1.175211e-01   9.155108e-01  -4.638442e-01   8.821421e-01  -8.169370e-02  -7.980099e-01  -4.560857e-01  -3.939113e-01  -1.369233e+01  -8.023395e-01   3.722691e+00   1.323096e-01   8.908867e-01   4.345285e-01   9.778309e-01  -4.553321e-02  -2.043858e-01   1.622991e-01  -4.519376e-01   8.771610e-01  -4.834669e-07   1.796157e-08   1.841134e-07   9.687005e-02   8.571863e-01   5.058141e-01   9.927084e-01  -1.198404e-01   1.297289e-02  -7.173716e-02  -5.008692e-01   8.625450e-01
