VARIABLES=
 x y z nomin_den nomin_voidr fabric_xx fabric_yy fabric_zz fabric_xy fabric_xz fabric_yz sigma_xx sigma_yy sigma_zz sigma_xy sigma_xz sigma_yz sigmaDot_xx sigmaDot_yy sigmaDot_zz sigmaDot_xy sigmaDot_xz sigmaDot_yz Oldro_xx Oldro_xy Oldro_xz Oldro_yx Oldro_yy Oldro_yz Oldro_zx Oldro_zy Oldro_zz Trues_xx Trues_xy Trues_xz Trues_yx Trues_yy Trues_yz Trues_zx Trues_zy Trues_zz F_xX F_xY F_xZ F_yX F_yY F_yZ F_zX F_zY F_zZ R_xX R_xY R_xZ R_yX R_yY R_yZ R_zX R_zY R_zZ U_xX U_yY U_zZ U_xY U_xZ U_yZ Green_xx Green_yy Green_zz Green_xy Green_xz Green_yz Green_vol Green_shr Euler_xx Euler_yy Euler_zz Euler_xy Euler_xz Euler_yz Euler_vol Euler_shr l_xx l_xy l_xz l_yx l_yy l_yz l_zx l_zy l_zz d_xx d_yy d_zz d_xy d_xz d_yz w_xy w_xz w_yz norm_sigma norm_sigmaDot norm_Oldro norm_Trues norm_F norm_U norm_l norm_d norm_w p q sigma_1 sigma_2 sigma_3 sigma_1_v1 sigma_1_v2 sigma_1_v3 sigma_2_v1 sigma_2_v2 sigma_2_v3 sigma_3_v1 sigma_3_v2 sigma_3_v3 sigmaDot_1 sigmaDot_2 sigmaDot_3 sigmaDot_1_v1 sigmaDot_1_v2 sigmaDot_1_v3 sigmaDot_2_v1 sigmaDot_2_v2 sigmaDot_2_v3 sigmaDot_3_v1 sigmaDot_3_v2 sigmaDot_3_v3 d_1 d_2 d_3 d_1_v1 d_1_v2 d_1_v3 d_2_v1 d_2_v2 d_2_v3 d_3_v1 d_3_v2 d_3_v3
ZONE T="stress" N=27, E=8, DATAPACKING=BLOCK, VARLOCATION=([4,5,6,7,8,9,10,11,12,13,14,15,16,17,18,19,20,21,22,23,24,25,26,27,28,29,30,31,32,33,34,35,36,37,38,39,40,41,42,43,44,45,46,47,48,49,50,51,52,53,54,55,56,57,58,59,60,61,62,63,64,65,66,67,68,69,70,71,72,73,74,75,76,77,78,79,80,81,82,83,84,85,86,87,88,89,90,91,92,93,94,95,96,97,98,99,100,101,102,103,104,105,106,107,108,109,110,111,112,113,114,115,116,117,118,119,120,121,122,123,124,125,126,127,128,129,130,131,132,133,134,135,136,137,138,139,140,141,142,143,144,145,146]=CELLCENTERED), ZONETYPE=FEBRICK, STRANDID=4, SOLUTIONTIME=22
   0.000000e+00   0.000000e+00   0.000000e+00   0.000000e+00   0.000000e+00   0.000000e+00   0.000000e+00   0.000000e+00   0.000000e+00   1.000000e-02   1.000000e-02   1.000000e-02   1.000000e-02   1.000000e-02   1.000000e-02   1.000000e-02   1.000000e-02   1.000000e-02   2.000000e-02   2.000000e-02   2.000000e-02   2.000000e-02   2.000000e-02   2.000000e-02   2.000000e-02   2.000000e-02   2.000000e-02
   0.000000e+00   0.000000e+00   0.000000e+00   1.000000e-02   1.000000e-02   1.000000e-02   2.000000e-02   2.000000e-02   2.000000e-02   0.000000e+00   0.000000e+00   0.000000e+00   1.000000e-02   1.000000e-02   1.000000e-02   2.000000e-02   2.000000e-02   2.000000e-02   0.000000e+00   0.000000e+00   0.000000e+00   1.000000e-02   1.000000e-02   1.000000e-02   2.000000e-02   2.000000e-02   2.000000e-02
   0.000000e+00   1.058255e-02   2.116510e-02   0.000000e+00   1.058255e-02   2.116510e-02   0.000000e+00   1.058255e-02   2.116510e-02   0.000000e+00   1.058255e-02   2.116510e-02   0.000000e+00   1.058255e-02   2.116510e-02   0.000000e+00   1.058255e-02   2.116510e-02   0.000000e+00   1.058255e-02   2.116510e-02   0.000000e+00   1.058255e-02   2.116510e-02   0.000000e+00   1.058255e-02   2.116510e-02
   1.564161e+03   1.079559e+03   1.514025e+03   1.188649e+03   1.761990e+03   1.045790e+03   1.585358e+03   1.184661e+03
   6.941985e-01   1.454706e+00   7.503018e-01   1.229423e+00   5.039812e-01   1.533969e+00   6.715466e-01   1.236927e+00
   3.383273e-01   3.422718e-01   3.268153e-01   3.299815e-01   3.194831e-01   3.331154e-01   3.135832e-01   3.139590e-01
   3.057090e-01   3.248972e-01   3.191820e-01   3.244758e-01   3.258991e-01   3.603972e-01   3.262834e-01   3.193894e-01
   3.559637e-01   3.328310e-01   3.540027e-01   3.455427e-01   3.546179e-01   3.064874e-01   3.601334e-01   3.666516e-01
  -8.002474e-04  -2.440087e-02  -9.658609e-05   1.141887e-02   1.354233e-03   7.315355e-03  -4.798808e-03  -1.242035e-02
   2.270654e-03   2.374303e-02  -5.072984e-03  -8.939748e-03  -5.268859e-03   1.572993e-02   7.965189e-03  -2.188594e-02
   1.201075e-03   2.897809e-04   1.842930e-02   6.321478e-03   1.572183e-02  -3.000616e-03   1.916962e-02   2.723077e-03
  -3.224591e+02  -7.319667e+01  -2.894933e+02  -9.930929e+01  -2.854605e+02  -1.278887e+02  -3.285144e+02  -7.664439e+01
  -2.385848e+02  -9.779783e+01  -2.346667e+02  -9.836477e+01  -2.721156e+02  -1.190041e+02  -3.526872e+02  -7.858172e+01
  -3.640254e+02  -1.087932e+02  -2.814891e+02  -1.242833e+02  -3.798665e+02  -1.273842e+02  -3.481614e+02  -1.030219e+02
  -2.400676e+01   2.348986e+01  -8.310674e+00   5.118975e-01   1.605410e+01  -1.227007e+01  -3.925501e+01  -1.518312e+00
   2.426030e+01   4.898540e+00   2.553951e+01  -1.840701e+00  -1.857501e+01   5.003721e-01   1.405647e+01   7.235625e+00
  -2.897016e+01   1.656240e+00  -2.028209e+01  -9.988731e+00  -3.880239e+01   1.179478e+01   2.503540e+01   4.764031e+00
  -7.573591e+02   3.144205e+03  -2.645365e+03   2.334763e+02   7.608303e+03   6.868503e+02  -1.122434e+02   1.210726e+03
  -1.623462e+02  -1.557869e+03  -1.310568e+03  -1.096850e+03   2.659373e+03   1.212345e+03  -4.458176e+02   5.147981e+02
  -1.451827e+03   1.434496e+03  -5.168249e+03  -4.782779e+02  -4.463024e+03  -6.433412e+01  -6.121087e+02   3.490112e+02
  -1.504881e+02  -1.050851e+03  -1.253305e+03  -5.117849e+02   2.137014e+03   1.595781e+03  -7.117042e+01   8.410593e+01
  -4.428679e+02  -3.308690e+03  -1.901603e+04  -2.112079e+03  -3.776504e+04  -1.451544e+02  -1.336575e+02  -2.867163e+02
  -8.341509e+02  -2.548053e+03   2.844528e+04   7.874730e+02   1.126749e+03   2.249310e+03   3.259118e+02  -4.070310e+01
  -7.483230e+02   3.144064e+03  -2.645199e+03   1.808148e+02   7.608277e+03   6.868843e+02  -1.361069e+02   1.210808e+03
  -2.389385e+02  -1.715686e+02   9.317888e+02  -3.581529e+02   7.719434e+03  -1.202567e+03  -2.053773e+01   4.841819e+01
  -3.287145e+02   6.003946e+02  -4.634096e+04  -1.428038e+03  -7.726449e+04   1.466740e+03  -2.863570e+02  -2.947902e+02
  -5.207566e+01  -1.929919e+03  -3.438484e+03  -7.331392e+02  -3.445121e+03   4.394190e+03  -1.747679e+02   1.086714e+02
  -1.608891e+02  -1.557998e+03  -1.310665e+03  -9.968193e+02   2.659427e+03   1.212381e+03  -4.018615e+02   5.196837e+02
  -6.562111e+02  -2.653359e+03  -7.463694e+01   1.195969e+03  -5.796566e+02   8.325735e+02   4.324169e+01  -3.499679e+01
  -5.585815e+02  -7.217098e+03   8.311941e+03  -3.157859e+03   1.734898e+03  -1.757063e+03   3.880937e+01  -2.761845e+02
  -1.012052e+03  -2.443290e+03   5.696442e+04  -1.939937e+02   2.833195e+03   3.666017e+03   5.265915e+02   1.040999e+01
  -1.451797e+03   1.433724e+03  -5.168194e+03  -7.855339e+02  -4.463003e+03  -6.433233e+01  -6.165055e+02   3.342543e+02
  -7.533046e+02   3.144415e+03  -2.645433e+03   2.540282e+02   7.608259e+03   6.868514e+02  -1.433974e+02   1.212492e+03
  -2.393094e+02  -1.716810e+02   9.317820e+02  -3.585356e+02   7.719435e+03  -1.202571e+03  -2.140883e+01   4.845161e+01
  -3.283398e+02   6.003715e+02  -4.634093e+04  -1.426777e+03  -7.726449e+04   1.466741e+03  -2.860451e+02  -2.949495e+02
  -5.244652e+01  -1.930032e+03  -3.438491e+03  -7.335112e+02  -3.445120e+03   4.394187e+03  -1.756392e+02   1.087047e+02
  -1.645749e+02  -1.557530e+03  -1.310855e+03  -9.243023e+02   2.659410e+03   1.212350e+03  -4.096885e+02   5.214102e+02
  -6.566587e+02  -2.653367e+03  -7.465336e+01   1.203308e+03  -5.796589e+02   8.325765e+02   4.379740e+01  -3.510130e+01
  -5.582067e+02  -7.217122e+03   8.311962e+03  -3.156405e+03   1.734897e+03  -1.757063e+03   3.912133e+01  -2.763431e+02
  -1.012500e+03  -2.443298e+03   5.696441e+04  -1.866046e+02   2.833193e+03   3.666020e+03   5.271470e+02   1.030516e+01
  -1.457421e+03   1.434245e+03  -5.168422e+03  -6.939090e+02  -4.463025e+03  -6.436510e+01  -6.242321e+02   3.365177e+02
   5.027505e+02   4.069489e+02  -4.836278e+02  -3.989268e+02  -3.396616e+02  -1.459089e+03   6.072093e+02  -6.867573e+02
  -8.531322e+02  -1.212821e+03   4.875215e+01  -3.769031e+02  -1.225718e+02   1.488035e+03  -2.786822e+02   6.656395e+02
  -2.841539e-03   1.983111e-02  -1.249904e+00  -2.296604e-02  -2.003305e-02   1.109569e+01   4.712676e-03  -2.063363e-02
  -3.350304e+02  -1.076722e+03  -3.696395e+02  -2.508949e+02  -9.882145e+02   1.404792e+02  -1.126221e+03  -8.577812e+02
  -1.004014e+03   1.160921e+03   1.874641e+02   6.637657e+02   4.409791e+02  -2.598991e+02   9.326654e+02   5.212133e+02
   2.789381e-03  -1.277379e-03  -1.066331e+00   4.868482e-03   2.026132e-03  -1.095506e+01  -3.863312e-03  -1.312188e-02
  -8.468459e+01  -1.158705e+02  -5.525973e+02   6.095376e+02   1.376304e+03  -1.346971e+01  -7.768294e+02   4.194398e+02
   1.685784e+02  -8.632869e+02  -5.911461e+02  -5.327285e+02  -8.298088e+02   5.497978e+02   7.288714e+02  -3.521694e+02
   1.990492e-02   2.667832e-02  -5.650140e-01   9.228875e-03   1.527643e-02   3.960421e+00   9.507304e-03   1.190196e-02
   7.719975e-01   1.053984e-02  -6.534633e-01  -6.972285e-01  -5.398011e-01  -8.135092e-01   8.288018e-01  -9.218183e-02
  -6.107288e-01  -6.727756e-01   2.624037e-01  -5.739945e-01  -7.532969e-01   5.748875e-01   4.881893e-01   9.283834e-01
   1.761538e-01  -7.397715e-01  -7.100211e-01  -4.294213e-01  -3.757108e-01  -8.778986e-02  -2.734207e-01   3.600093e-01
  -6.225389e-01  -8.670211e-01  -5.573258e-01  -1.435062e-01  -6.064167e-01  -4.678543e-02  -5.352522e-01  -9.740177e-01
  -7.824339e-01   3.624168e-01   4.679431e-01   6.986769e-01   3.842867e-02  -2.151648e-01   5.493097e-01  -1.591815e-01
   1.557459e-02  -3.419481e-01   6.858697e-01  -7.008969e-01   7.942179e-01  -9.754564e-01  -6.416884e-01   1.610924e-01
  -1.283168e-01  -4.981600e-01  -5.122242e-01   7.023378e-01   5.838438e-01   5.796670e-01  -1.630728e-01   2.068623e-01
   1.216861e-01  -6.450016e-01  -8.439038e-01  -4.270607e-01  -6.565569e-01   7.894355e-01   6.781815e-01  -3.358056e-01
   9.842394e-01   5.794908e-01   1.595393e-01  -5.695093e-01   4.775557e-01  -2.019349e-01   7.165732e-01   9.189356e-01
   6.075580e+02   9.955520e+02   8.050963e+02   7.422494e+02   1.586166e+03   1.172602e+03   1.232748e+03   9.855669e+02
   1.327120e+03   1.793515e+03   5.993857e+02   9.076055e+02   6.540959e+02   1.345404e+03   8.705796e+02   6.532616e+02
   1.913411e-02   1.226146e-03   6.595219e-02   1.193874e-03   1.643117e-02   8.912350e+00   8.003179e-03   1.394997e-03
  -5.520996e+01  -5.892709e+02   1.664630e+02  -2.066222e+02  -6.857314e+02  -8.796715e+02  -8.490425e+02  -6.418814e+02
  -6.484296e-03  -1.197354e-02   1.700475e+00   2.179571e-02   1.850423e-02  -6.218184e+00   4.423339e-03   1.714505e-02
   1.975056e-03  -3.101239e-02  -3.501444e-01   1.264259e-02   5.138850e-03   1.186241e+01   6.626200e-03  -2.106390e-02
   1.860870e+05   6.691815e+05   3.379460e+05   2.968130e+05   1.493074e+06   1.074427e+06   1.120270e+06   6.916764e+05
   8.821478e+05   1.781968e+06   1.934861e+05   4.332197e+05   4.490340e+05   1.292037e+06   7.393905e+05   4.193807e+05
  -4.997940e-01  -4.994467e-01   1.009282e+00  -4.996818e-01  -4.996806e-01   1.289063e+02  -4.999362e-01  -4.996302e-01
  -5.340675e+04  -8.217580e+05   1.168968e+05  -1.704484e+05  -7.681090e+05  -1.107546e+06  -8.929074e+05  -5.259668e+05
  -2.024376e+00   3.177200e+00   6.554359e+02   6.782820e+00   1.291360e+01  -8.890950e+03  -8.651362e-02   1.520907e+01
   1.489586e+00  -2.428278e+01   3.658573e+01   3.485510e+00  -4.663772e+00   1.076771e+04   1.006543e+00  -1.238268e+01
   3.560781e+05   8.170496e+05   1.771444e+05   2.433441e+05   6.473693e+05   7.888643e+05   6.198868e+05   3.703522e+05
   5.404583e+05   1.407379e+06   2.378159e+05   3.227316e+05   1.252630e+06   1.507877e+06   1.222972e+06   7.285128e+05
  -4.188227e+01  -1.823653e+05  -6.581717e+01  -6.478724e+04  -2.608840e+02   4.999455e-01  -5.833100e+02  -3.336036e+04
   1.689682e-01  -3.896541e+04  -6.205577e+01  -1.726319e+05  -1.167832e+03   4.938913e-01  -3.214193e+03  -6.676466e+03
  -1.322492e+03  -1.118853e+05  -2.872977e+00  -1.139790e+05  -4.219085e+02   4.997070e-01  -4.008021e+03  -2.173079e+05
  -3.745643e+00  -8.429740e+04   6.440902e+01  -1.057566e+05   5.526148e+02  -5.758686e-04  -1.369953e+03  -1.492479e+04
  -2.367940e+02   1.428431e+05   1.495614e+01  -8.593294e+04   3.322812e+02  -1.246766e-04   1.529776e+03  -8.514455e+04
  -2.092729e+01   6.602825e+04  -1.452581e+01  -1.402731e+05  -7.025050e+02  -1.329801e-03   3.589731e+03  -3.809148e+04
  -4.547350e+02  -1.110720e+05  -4.358197e+01  -1.171327e+05  -6.168747e+02   4.978479e-01  -2.601841e+03  -8.578157e+04
   9.104700e+02   2.221450e+05   8.816395e+01   2.342664e+05   1.234749e+03   4.300495e-03   5.204683e+03   1.715641e+05
   1.376518e-02  -7.085506e-04   7.626311e-04  -2.396696e-01  -5.852701e-05   1.230941e-04  -3.730770e-02   3.729844e-04
   1.992837e-03   4.765928e-04   1.901541e-04   4.136135e-01   4.563626e-04   9.640473e-05   2.744552e-03  -2.923287e-04
  -1.298848e-03   1.548451e-03   5.461786e-03  -1.259092e+00   5.912535e-04  -1.302198e-04  -1.541319e-02  -1.787703e-03
   1.300286e-02   4.114775e-04  -8.368519e-04  -5.738495e-01  -1.514448e-05   1.123197e-04  -9.309931e-02  -4.684535e-02
   1.646705e-03  -5.752529e-04  -4.809760e-05   7.654185e-01   9.171808e-05   1.287384e-04   6.411386e-02   4.901010e-02
   8.103794e-04  -6.520188e-04  -1.492164e-03  -2.559740e+00   3.663902e-05  -9.524326e-05  -1.206513e-01   2.807254e-01
  -9.157974e-05   1.496685e-03   8.998435e-07  -2.573345e-01   1.918922e-06   8.585452e-05   4.503135e-02   1.196486e-02
  -2.828619e-05  -1.737138e-03   4.360995e-05   3.816636e-01   6.644443e-06  -2.087072e-05  -1.632727e-03  -1.240424e-02
   3.674344e-05  -3.507013e-03   9.499784e-05  -1.262975e+00   2.694511e-05   5.427902e-06  -4.613577e-03  -7.135342e-02
   1.376518e-02  -7.085506e-04   7.626311e-04  -2.396696e-01  -5.852701e-05   1.230941e-04  -3.730770e-02   3.729844e-04
   1.646705e-03  -5.752529e-04  -4.809760e-05   7.654185e-01   9.171808e-05   1.287384e-04   6.411386e-02   4.901010e-02
   3.674344e-05  -3.507013e-03   9.499784e-05  -1.262975e+00   2.694511e-05   5.427902e-06  -4.613577e-03  -7.135342e-02
   7.497848e-03   4.440352e-04  -3.233489e-04  -8.011801e-02   2.206090e-04   1.043622e-04  -4.517738e-02  -2.356884e-02
  -6.952136e-04   1.522568e-03   2.731343e-03  -7.582134e-01   2.965862e-04  -2.218264e-05   1.480908e-02   5.088577e-03
   3.910466e-04  -1.194578e-03  -7.242768e-04  -1.089038e+00   2.164173e-05  -5.805699e-05  -6.114202e-02   1.341606e-01
  -5.505011e-03   3.255764e-05   5.135030e-04   4.937315e-01   2.357535e-04  -7.957463e-06   4.792193e-02   2.327651e-02
  -6.036339e-04   2.588318e-05   2.730443e-03  -5.008790e-01   2.946673e-04  -1.080372e-04  -3.022227e-02  -6.876280e-03
   4.193328e-04   5.425596e-04  -7.678868e-04  -1.470702e+00   1.499729e-05  -3.718627e-05  -5.950930e-02   1.465648e-01
   5.453672e+02   1.670784e+02   4.694426e+02   1.875931e+02   5.514073e+02   2.175409e+02   5.985457e+02   1.510552e+02
   2.155020e+03   9.142424e+03   7.422803e+04   3.834518e+03   7.834248e+04   6.486305e+03   1.012867e+03   1.427437e+03
   2.151353e+03   9.142157e+03   7.422695e+04   3.973476e+03   7.834226e+04   6.486320e+03   9.765947e+02   1.423559e+03
   2.157407e+03   9.142328e+03   7.422695e+04   3.943136e+03   7.834226e+04   6.486312e+03   9.861719e+02   1.426223e+03
   1.461667e+03   2.214114e+03   1.030955e+03   1.208333e+03   1.970842e+03   2.175589e+03   1.928555e+03   1.490676e+03
   1.461667e+03   2.214114e+03   1.030955e+03   1.208333e+03   1.970842e+03   2.175589e+03   1.928555e+03   1.490676e+03
   1.917268e-02   4.648558e-03   5.778320e-03   3.329905e+00   7.563271e-04   2.958037e-04   1.761350e-01   2.979849e-01
   1.749003e-02   4.584419e-03   4.095323e-03   2.402714e+00   5.355033e-04   2.475146e-04   1.323671e-01   2.113157e-01
   7.854343e-03   7.695464e-04   4.076433e-03   2.305478e+00   5.341038e-04   1.619763e-04   1.162003e-01   2.100968e-01
  -3.083565e+02  -9.326258e+01  -2.685497e+02  -1.073191e+02  -3.124809e+02  -1.247590e+02  -3.431210e+02  -8.608268e+01
   1.351353e+02   5.232433e+01   7.766355e+01   3.101561e+01   1.291254e+02   3.074157e+01   8.712811e+01   2.966339e+01
  -3.773726e+02  -1.124540e+02  -3.120510e+02  -1.278087e+02  -3.939263e+02  -1.412149e+02  -3.980004e+02  -1.057863e+02
  -3.239958e+02  -1.088935e+02  -2.711151e+02  -9.948042e+01  -2.958989e+02  -1.271101e+02  -3.321623e+02  -7.769095e+01
  -2.237010e+02  -5.844031e+01  -2.224830e+02  -9.466824e+01  -2.476175e+02  -1.059519e+02  -2.992003e+02  -7.477081e+01
  -3.514467e-01   5.143787e-01   7.299821e-01   5.970187e-02  -1.202781e-01  -5.812365e-01  -5.008661e-01   2.453140e-01
   1.326616e-01  -7.863897e-01  -9.897323e-02   3.207514e-01  -2.868490e-01  -6.083029e-01  -7.085307e-01   1.807090e-01
   9.267611e-01  -3.420612e-01  -6.762621e-01   9.452800e-01  -9.503951e-01   5.404921e-01   4.971091e-01  -9.524523e-01
  -8.918685e-01   9.601642e-02   6.296698e-01   9.694804e-01  -8.602108e-01  -6.882937e-01   3.706513e-01  -4.930133e-02
  -3.484757e-01  -3.435556e-01   4.821688e-01  -2.442125e-01   5.079969e-01   1.321057e-02   3.434302e-01  -9.788762e-01
  -2.883320e-01   9.342111e-01   6.091216e-01   2.163562e-02  -4.445927e-02  -7.253119e-01   8.629445e-01  -1.984205e-01
   2.847031e-01   8.521710e-01  -2.657857e-01  -2.377888e-01   4.955508e-01   4.340691e-01  -7.821449e-01  -9.681892e-01
  -9.278823e-01   5.133818e-01   8.704697e-01  -9.151387e-01   8.121926e-01  -7.935950e-01   6.164738e-01   9.563249e-02
   2.407874e-01   1.012114e-01  -4.142950e-01   3.255421e-01  -3.078515e-01  -4.263695e-01   9.060525e-02  -2.312229e-01
  -2.195030e+03  -6.816419e+03  -6.142908e+04  -3.196662e+03  -6.048193e+03  -5.969141e+03  -1.116773e+03   2.664773e+02
  -6.133181e+02   2.769176e+02  -1.648124e+03  -1.105261e+03   2.472222e+03   1.960975e+03  -1.437047e+02   4.991862e+02
   4.368157e+02   9.560334e+03   5.395302e+04   2.960271e+03   9.380624e+03   5.843028e+03   9.030803e+01   1.308872e+03
   3.418271e-01  -5.675575e-01   1.411007e-01   6.653013e-01  -2.096140e-01  -5.560783e-01  -1.183533e-01   2.883635e-01
   4.265316e-01  -5.089705e-01   6.851700e-01   1.896299e-01  -3.765413e-01   6.217850e-01  -6.564235e-01  -6.339556e-02
   8.373918e-01  -6.471688e-01  -7.145857e-01   7.220905e-01   9.023739e-01  -5.515074e-01   7.450508e-01   9.554201e-01
   9.188719e-01   3.505544e-01   9.882409e-01  -1.969495e-02   3.980166e-01  -6.223475e-01  -8.906761e-01  -1.190059e-01
  -3.385361e-01  -8.606119e-01  -1.404339e-01   9.713256e-01   8.100981e-01   1.283000e-01  -2.615164e-01   9.876965e-01
  -2.026518e-01   3.694032e-01   6.048317e-02  -2.369361e-01   4.304926e-01   7.721546e-01  -3.718940e-01   1.014554e-01
  -1.970499e-01   7.449766e-01   5.891079e-02   7.463151e-01   8.931096e-01  -5.508725e-01  -4.389630e-01   9.500969e-01
  -8.387277e-01   1.721033e-02   7.147170e-01  -1.434124e-01  -4.493970e-01  -7.726076e-01   7.076139e-01   1.429566e-01
   5.076487e-01  -6.668686e-01   6.969283e-01  -6.499589e-01   1.993818e-02  -3.156215e-01   5.537094e-01  -2.772712e-01
  -2.131516e-03  -4.579975e-03  -2.371113e-03  -2.034261e+00  -3.705125e-04  -2.155394e-05  -5.709098e-02  -1.600420e-01
   2.219046e-04  -2.015814e-04  -1.548487e-04   1.856958e-02   4.686795e-05   3.469279e-05  -3.491933e-02   8.290614e-05
   1.735824e-02  -9.259789e-06   3.335493e-03   1.278465e+00   3.837808e-04   2.441216e-04   1.142029e-01   1.379887e-01
   4.186535e-01  -3.786899e-01  -6.414736e-01   3.783249e-01   7.629293e-01   2.140319e-01  -8.309222e-01   1.065185e-01
  -8.607750e-01   3.028649e-01   1.455494e-01   3.449637e-01  -3.383312e-01  -4.777534e-01  -4.643405e-01   5.455075e-01
   2.894749e-01   8.745666e-01   7.532111e-01   8.589938e-01  -5.508819e-01  -8.520223e-01  -3.065228e-01  -8.313094e-01
  -1.016533e-01   4.773473e-01   2.537048e-01   9.102903e-01   9.841217e-02  -7.209579e-01  -4.721551e-01   9.865982e-01
   2.723330e-01   8.734775e-01   9.668397e-01  -3.071143e-01  -7.814114e-01   5.112658e-01   2.970235e-01   4.594577e-02
   9.568184e-01  -9.579499e-02   2.923748e-02  -2.775831e-01   6.162072e-01  -4.677894e-01   8.299678e-01   1.565659e-01
   9.024388e-01  -7.929272e-01   7.239789e-01  -1.680532e-01  -6.389475e-01   6.590979e-01   2.943432e-01  -1.236030e-01
   4.300014e-01   3.811954e-01  -2.098483e-01  -8.869503e-01  -5.243360e-01   7.143941e-01  -8.343650e-01   8.368456e-01
  -2.651256e-02  -4.753489e-01   6.571288e-01   4.302061e-01  -5.628657e-01  -2.350130e-01   4.660441e-01   5.333027e-01
      10      13       4       1      11      14       5       2
      11      14       5       2      12      15       6       3
      13      16       7       4      14      17       8       5
      14      17       8       5      15      18       9       6
      19      22      13      10      20      23      14      11
      20      23      14      11      21      24      15      12
      22      25      16      13      23      26      17      14
      23      26      17      14      24      27      18      15
