     VARIABLES=
              x              y              z      nomin_den    nomin_voidr      fabric_xx      fabric_yy      fabric_zz      fabric_xy      fabric_xz      fabric_yz       sigma_xx       sigma_yy       sigma_zz       sigma_xy       sigma_xz       sigma_yz    sigmaDot_xx    sigmaDot_yy    sigmaDot_zz    sigmaDot_xy    sigmaDot_xz    sigmaDot_yz       Oldro_xx       Oldro_xy       Oldro_xz       Oldro_yx       Oldro_yy       Oldro_yz       Oldro_zx       Oldro_zy       Oldro_zz       Trues_xx       Trues_xy       Trues_xz       Trues_yx       Trues_yy       Trues_yz       Trues_zx       Trues_zy       Trues_zz           F_xX           F_xY           F_xZ           F_yX           F_yY           F_yZ           F_zX           F_zY           F_zZ           R_xX           R_xY           R_xZ           R_yX           R_yY           R_yZ           R_zX           R_zY           R_zZ           U_xX           U_yY           U_zZ           U_xY           U_xZ           U_yZ       Green_xx       Green_yy       Green_zz       Green_xy       Green_xz       Green_yz      Green_vol      Green_shr       Euler_xx       Euler_yy       Euler_zz       Euler_xy       Euler_xz       Euler_yz      Euler_vol      Euler_shr           l_xx           l_xy           l_xz           l_yx           l_yy           l_yz           l_zx           l_zy           l_zz           d_xx           d_yy           d_zz           d_xy           d_xz           d_yz           w_xy           w_xz           w_yz     norm_sigma  norm_sigmaDot     norm_Oldro     norm_Trues         norm_F         norm_U         norm_l         norm_d         norm_w              p              q        sigma_1        sigma_2        sigma_3     sigma_1_v1     sigma_1_v2     sigma_1_v3     sigma_2_v1     sigma_2_v2     sigma_2_v3     sigma_3_v1     sigma_3_v2     sigma_3_v3     sigmaDot_1     sigmaDot_2     sigmaDot_3  sigmaDot_1_v1  sigmaDot_1_v2  sigmaDot_1_v3  sigmaDot_2_v1  sigmaDot_2_v2  sigmaDot_2_v3  sigmaDot_3_v1  sigmaDot_3_v2  sigmaDot_3_v3            d_1            d_2            d_3         d_1_v1         d_1_v2         d_1_v3         d_2_v1         d_2_v2         d_2_v3         d_3_v1         d_3_v2         d_3_v3
ZONE I=2, J=2, K=2, DATAPACKING=POINT, STRANDID=5, SOLUTIONTIME=5
   5.000000e-03   5.000000e-03   1.204519e-01   1.395427e+02   1.799061e+01   3.534684e-01   2.819235e-01   3.646081e-01   3.086028e-02  -4.005189e-02  -6.536167e-02  -2.742361e+00   1.677129e+00  -1.540750e-01   1.025104e+00   5.234291e-01   4.040048e-01   3.162314e+05  -1.831836e+04   4.290583e+04  -1.055721e+05  -6.367627e+04   1.186243e+05   3.162796e+05  -1.359526e+05  -7.304590e+04  -7.514613e+04  -1.836592e+04   3.476028e+04  -5.437277e+04   2.025013e+05   4.291457e+04   3.162711e+05  -1.359490e+05  -7.304647e+04  -7.514336e+04  -1.836070e+04   3.476219e+04  -5.436894e+04   2.025019e+05   4.291409e+04   5.332693e+00   4.977898e+01   3.622617e-03   5.802569e+01  -1.120483e+02   2.184691e-03  -1.050153e+03  -1.417187e+02   1.207676e+00  -3.722804e-02   3.779909e-01   9.250605e-01   1.605756e-01  -9.114103e-01   3.788755e-01  -9.863212e-01  -1.626469e-01   2.676610e-02   1.044908e+03   1.439881e+02   3.650365e-02   1.199348e+02  -1.190941e+00  -1.970467e-01   5.531084e+05   1.755798e+04   2.292499e-01   7.129508e+04  -6.340497e+02  -8.560738e+01   1.902222e+05   3.722459e+05  -3.465327e+02  -5.762034e+01   2.339102e-01  -1.420199e+02  -9.609458e+00  -3.932582e+00  -1.346397e+02   2.702794e+02   6.631605e+00  -5.764000e+00  -4.446482e-02   1.020953e+01   7.971366e+00  -1.395220e-01  -1.314686e+01   1.831319e+00  -1.149229e+01   6.631605e+00   7.971366e+00  -1.149229e+01   2.222768e+00  -6.595662e+00   8.458984e-01  -7.986767e+00   6.551197e+00  -9.854204e-01   3.802852e+00   4.204947e+05   4.205341e+05   4.205258e+05   1.068333e+03   1.068333e+03   2.352163e+01   1.838237e+01   1.467499e+01  -4.064357e-01   4.671995e+00  -3.349578e+00   1.823671e-01   1.947904e+00  -9.254867e-01   1.505720e-01   3.475664e-01  -2.942210e-01   2.921303e-01  -9.099967e-01   2.385547e-01   9.444512e-01   2.260612e-01  -1.934561e+05   1.640611e+05   3.702138e+05  -4.394817e-02  -7.636434e-01   6.441407e-01  -5.065329e-01  -5.387104e-01  -6.732129e-01   8.610999e-01  -3.558649e-01  -3.631352e-01  -1.374171e+01   6.545354e+00   1.030704e+01  -3.140769e-01   6.904076e-02  -9.468839e-01   5.885840e-01  -7.684000e-01  -2.512574e-01  -7.449326e-01  -6.362349e-01   2.007004e-01
   5.000000e-03   5.000000e-03   3.613558e-01   4.881508e+01   5.328650e+01   0.000000e+00   0.000000e+00   0.000000e+00   0.000000e+00   0.000000e+00   0.000000e+00   0.000000e+00   0.000000e+00   0.000000e+00   0.000000e+00   0.000000e+00   0.000000e+00   0.000000e+00   0.000000e+00   0.000000e+00   0.000000e+00   0.000000e+00   0.000000e+00   0.000000e+00   0.000000e+00   0.000000e+00   0.000000e+00   0.000000e+00   0.000000e+00   0.000000e+00   0.000000e+00   0.000000e+00   0.000000e+00   0.000000e+00   0.000000e+00   0.000000e+00   0.000000e+00   0.000000e+00   0.000000e+00   0.000000e+00   0.000000e+00   1.000000e+00   9.713421e-19  -6.717933e-18  -2.649836e-17   1.000000e+00   3.195416e-18  -1.754483e-02   2.351016e-01   2.468768e+00   9.999873e-01   1.708137e-04   5.046300e-03   1.708137e-04   9.977111e-01  -6.762068e-02  -5.046300e-03   6.762068e-02   9.976983e-01   1.000076e+00   1.013609e+00   2.463086e+00  -1.015580e-03  -1.245815e-02   1.669398e-01   1.539105e-04   2.763638e-02   2.547408e+00  -2.062409e-03  -2.165706e-02   2.902057e-01   8.583995e-01   1.722186e+00  -2.525269e-05  -4.534408e-03   4.179631e-01   3.383873e-04  -1.439324e-03   1.928701e-02   1.378011e-01   2.810630e-01   0.000000e+00   0.000000e+00   0.000000e+00   0.000000e+00   0.000000e+00   0.000000e+00  -7.780655e-02   8.318333e-01   4.616358e+00   0.000000e+00   0.000000e+00   4.616358e+00   0.000000e+00  -3.890328e-02   4.159166e-01   0.000000e+00   3.890328e-02  -4.159166e-01   0.000000e+00   0.000000e+00   0.000000e+00   0.000000e+00   2.854890e+00   2.854890e+00   4.691349e+00   4.654004e+00   5.907624e-01   0.000000e+00   0.000000e+00   0.000000e+00   0.000000e+00   0.000000e+00   0.000000e+00   0.000000e+00   0.000000e+00   0.000000e+00   0.000000e+00   0.000000e+00   0.000000e+00   0.000000e+00   0.000000e+00   0.000000e+00   0.000000e+00   0.000000e+00   0.000000e+00   0.000000e+00   0.000000e+00   0.000000e+00   0.000000e+00   0.000000e+00   0.000000e+00   0.000000e+00   0.000000e+00  -3.749583e-02  -5.543536e-16   4.653853e+00   9.275681e-02  -9.916671e-01   8.940105e-02  -9.956540e-01  -9.312973e-02  -4.086087e-18   8.325895e-03  -8.901251e-02  -9.959957e-01
   5.000000e-03   1.500000e-02   1.204519e-01   9.024829e+01   2.836344e+01   3.181584e-01   2.917958e-01   3.900459e-01  -1.732516e-02  -2.370175e-02  -1.923426e-02  -1.196357e+01  -1.118059e+01  -8.539560e+00   1.532093e+00   2.573627e+00   3.303335e+00   2.437805e+05  -1.233060e+05   2.751516e+05   3.787977e+05  -1.962347e+05   1.928182e+05   2.438464e+05  -7.988467e+04  -3.366486e+05   8.374122e+05  -1.232460e+05  -4.298591e+04  -5.619922e+04   4.285404e+05   2.751273e+05   2.439116e+05  -7.988923e+04  -3.366546e+05   8.374001e+05  -1.231850e+05  -4.300907e+04  -5.622136e+04   4.285275e+05   2.751738e+05   1.077950e+02  -9.466330e+01   2.219527e-02  -6.524380e+02   2.350528e+02  -4.970175e-02   7.212747e+03   3.202580e+03   6.080948e-01   1.123691e-01  -2.369395e-01   9.650041e-01  -4.455028e-01   8.560653e-01   2.620677e-01   8.882007e-01   4.593604e-01   9.361906e-03   6.709142e+03   1.694788e+03   1.408623e-02   2.729180e+03   5.647466e-01   2.315278e-01   2.623050e+07   5.160363e+06  -3.136289e-01   1.146792e+07   2.210427e+03   9.668443e+02   1.046362e+07   2.080437e+07  -2.361979e+03  -1.737842e+02   2.811970e-01  -6.416719e+02  -2.273582e+01  -6.175266e+00  -8.451606e+02   1.691321e+03   3.053442e+00   2.430557e+00  -5.911714e-02  -4.443301e+00   2.101251e+00   8.299899e-02  -1.797170e+01  -9.724725e+00  -1.060484e+01   3.053442e+00   2.101251e+00  -1.060484e+01  -1.006372e+00  -9.015406e+00  -4.820863e+00   3.436929e+00   8.956289e+00   4.903862e+00   1.969802e+01   1.076991e+06   1.077020e+06   1.077029e+06   7.923493e+03   7.923493e+03   2.386241e+01   1.836474e+01   1.523650e+01  -1.056124e+01   9.524638e+00  -1.478382e+01  -1.255689e+01  -4.343014e+00   8.536330e-01  -2.184360e-01  -4.728598e-01   3.893834e-02  -8.785169e-01   4.761217e-01   5.194175e-01   4.248456e-01   7.414255e-01  -9.143200e+05   3.138777e+05   9.960684e+05  -5.680791e-01   7.653494e-01  -3.025333e-01   4.461321e-01  -2.251693e-02  -8.946838e-01  -6.915579e-01  -6.432210e-01  -3.286555e-01  -1.632237e+01   3.013204e+00   7.859023e+00  -4.190292e-01  -2.512023e-01  -8.725319e-01   3.398489e-01  -9.345062e-01   1.058339e-01  -8.419722e-01  -2.521815e-01   4.769562e-01
   5.000000e-03   1.500000e-02   3.613558e-01   1.325202e+01   1.989695e+02   0.000000e+00   0.000000e+00   0.000000e+00   0.000000e+00   0.000000e+00   0.000000e+00   0.000000e+00   0.000000e+00   0.000000e+00   0.000000e+00   0.000000e+00   0.000000e+00   0.000000e+00   0.000000e+00   0.000000e+00   0.000000e+00   0.000000e+00   0.000000e+00   0.000000e+00   0.000000e+00   0.000000e+00   0.000000e+00   0.000000e+00   0.000000e+00   0.000000e+00   0.000000e+00   0.000000e+00   0.000000e+00   0.000000e+00   0.000000e+00   0.000000e+00   0.000000e+00   0.000000e+00   0.000000e+00   0.000000e+00   0.000000e+00   0.000000e+00   0.000000e+00   0.000000e+00   0.000000e+00   0.000000e+00   0.000000e+00   0.000000e+00   0.000000e+00   0.000000e+00   0.000000e+00   0.000000e+00   0.000000e+00   0.000000e+00   0.000000e+00   0.000000e+00   0.000000e+00   0.000000e+00   0.000000e+00   0.000000e+00   0.000000e+00   0.000000e+00   0.000000e+00   0.000000e+00   0.000000e+00  -5.000000e-01  -5.000000e-01  -5.000000e-01   0.000000e+00   0.000000e+00   0.000000e+00  -5.000000e-01   0.000000e+00   0.000000e+00   0.000000e+00   0.000000e+00   0.000000e+00   0.000000e+00   0.000000e+00   0.000000e+00   0.000000e+00   0.000000e+00   0.000000e+00   0.000000e+00   0.000000e+00   0.000000e+00   0.000000e+00   0.000000e+00   0.000000e+00   0.000000e+00   0.000000e+00   0.000000e+00   0.000000e+00   0.000000e+00   0.000000e+00   0.000000e+00   0.000000e+00   0.000000e+00   0.000000e+00   0.000000e+00   0.000000e+00   0.000000e+00   0.000000e+00   0.000000e+00   0.000000e+00   0.000000e+00   0.000000e+00   0.000000e+00   0.000000e+00   0.000000e+00   0.000000e+00   0.000000e+00   0.000000e+00   0.000000e+00   0.000000e+00   0.000000e+00   0.000000e+00   0.000000e+00   0.000000e+00   0.000000e+00   0.000000e+00   0.000000e+00   0.000000e+00   0.000000e+00   0.000000e+00   0.000000e+00   0.000000e+00   0.000000e+00   0.000000e+00   0.000000e+00   0.000000e+00   0.000000e+00   0.000000e+00   0.000000e+00   0.000000e+00   0.000000e+00   0.000000e+00   0.000000e+00   0.000000e+00   0.000000e+00   0.000000e+00   0.000000e+00   0.000000e+00   0.000000e+00   0.000000e+00   0.000000e+00
   1.500000e-02   5.000000e-03   1.204519e-01   8.322583e+01   3.084108e+01   3.326719e-01   2.604771e-01   4.068510e-01   1.316312e-02  -2.747927e-02   1.405038e-02  -7.232183e+01  -6.840120e+01  -1.313185e+02  -2.676299e+01  -8.408392e+00   5.268034e+00   1.073605e+06  -6.383593e+06  -2.409791e+06  -8.339181e+05  -3.792612e+06   1.759495e+06   1.074462e+06   9.978516e+05  -9.413518e+06  -2.665271e+06  -6.383785e+06   3.478975e+06   1.827496e+06   3.952676e+04  -2.412710e+06   1.074972e+06   9.979890e+05  -9.413398e+06  -2.665031e+06  -6.383303e+06   3.478944e+06   1.827495e+06   3.948405e+04  -2.411784e+06  -1.479595e+02  -7.408038e+02  -2.790014e-02  -2.541201e+02   5.918834e+02  -2.496068e-03   2.528944e+04  -1.373461e+04   7.090175e-01  -4.111742e-01  -7.726079e-01  -4.837487e-01   2.155473e-01   4.332282e-01  -8.751301e-01   8.857060e-01  -4.641016e-01  -1.159869e-02   2.240508e+04   7.203026e+03   7.457367e-03  -1.173265e+04   6.389149e-01  -3.085817e-01   3.198212e+08   9.476932e+07  -2.482547e-01  -1.736907e+08   8.967711e+03  -4.859444e+03   1.381968e+08   2.760539e+08  -2.113829e+03  -6.920393e+03  -7.209680e-01  -3.825316e+03  -5.080874e+01  -9.192491e+01  -3.011647e+03   6.024295e+03   2.253782e+00   9.912000e+00  -2.047382e-02  -7.982860e+00   1.727605e+00   1.284548e-01  -2.832236e+00  -2.437909e+00  -1.103156e+01   2.253782e+00   1.727605e+00  -1.103156e+01   9.645698e-01  -1.426355e+00  -1.154727e+00   8.947430e+00   1.405881e+00   1.283182e+00   1.703972e+02   1.264375e+07   1.264463e+07   1.264411e+07   2.879550e+04   2.879550e+04   1.748471e+01   1.176248e+01   1.293674e+01  -9.068050e+01   8.551072e+01  -1.321624e+02  -1.038040e+02  -3.607511e+01  -7.922972e-02  -1.361204e-01   9.875191e-01  -7.254433e-01  -6.715652e-01  -1.507722e-01   6.837066e-01  -7.283347e-01  -4.553971e-02  -7.315868e+06  -2.940708e+06   2.536797e+06  -3.256796e-01  -9.366506e-01   1.289122e-01  -2.762950e-01   2.246778e-01   9.344415e-01   9.042090e-01  -2.687108e-01   3.319649e-01  -1.126779e+01   9.910845e-01   3.226538e+00   9.886074e-02   8.079157e-02   9.918162e-01  -6.097376e-01   7.925943e-01  -3.786830e-03  -7.864138e-01  -6.043732e-01   1.276181e-01
   1.500000e-02   5.000000e-03   3.613558e-01   9.777835e+00   2.700211e+02   0.000000e+00   0.000000e+00   0.000000e+00   0.000000e+00   0.000000e+00   0.000000e+00   0.000000e+00   0.000000e+00   0.000000e+00   0.000000e+00   0.000000e+00   0.000000e+00   0.000000e+00   0.000000e+00   0.000000e+00   0.000000e+00   0.000000e+00   0.000000e+00   0.000000e+00   0.000000e+00   0.000000e+00   0.000000e+00   0.000000e+00   0.000000e+00   0.000000e+00   0.000000e+00   0.000000e+00   0.000000e+00   0.000000e+00   0.000000e+00   0.000000e+00   0.000000e+00   0.000000e+00   0.000000e+00   0.000000e+00   0.000000e+00   0.000000e+00   0.000000e+00   0.000000e+00   0.000000e+00   0.000000e+00   0.000000e+00   0.000000e+00   0.000000e+00   0.000000e+00   0.000000e+00   0.000000e+00   0.000000e+00   0.000000e+00   0.000000e+00   0.000000e+00   0.000000e+00   0.000000e+00   0.000000e+00   0.000000e+00   0.000000e+00   0.000000e+00   0.000000e+00   0.000000e+00   0.000000e+00  -5.000000e-01  -5.000000e-01  -5.000000e-01   0.000000e+00   0.000000e+00   0.000000e+00  -5.000000e-01   0.000000e+00   0.000000e+00   0.000000e+00   0.000000e+00   0.000000e+00   0.000000e+00   0.000000e+00   0.000000e+00   0.000000e+00   0.000000e+00   0.000000e+00   0.000000e+00   0.000000e+00   0.000000e+00   0.000000e+00   0.000000e+00   0.000000e+00   0.000000e+00   0.000000e+00   0.000000e+00   0.000000e+00   0.000000e+00   0.000000e+00   0.000000e+00   0.000000e+00   0.000000e+00   0.000000e+00   0.000000e+00   0.000000e+00   0.000000e+00   0.000000e+00   0.000000e+00   0.000000e+00   0.000000e+00   0.000000e+00   0.000000e+00   0.000000e+00   0.000000e+00   0.000000e+00   0.000000e+00   0.000000e+00   0.000000e+00   0.000000e+00   0.000000e+00   0.000000e+00   0.000000e+00   0.000000e+00   0.000000e+00   0.000000e+00   0.000000e+00   0.000000e+00   0.000000e+00   0.000000e+00   0.000000e+00   0.000000e+00   0.000000e+00   0.000000e+00   0.000000e+00   0.000000e+00   0.000000e+00   0.000000e+00   0.000000e+00   0.000000e+00   0.000000e+00   0.000000e+00   0.000000e+00   0.000000e+00   0.000000e+00   0.000000e+00   0.000000e+00   0.000000e+00   0.000000e+00   0.000000e+00   0.000000e+00
   1.500000e-02   1.500000e-02   1.204519e-01   8.619375e+01   2.974469e+01   3.427829e-01   2.817905e-01   3.754266e-01   4.820447e-02  -2.948088e-02   1.936937e-02  -5.217031e+01  -5.204317e+01  -3.544825e+01  -1.704585e+01   1.751390e+01   3.671937e+00  -4.966785e+04   3.097563e+05   8.769268e+05   5.751071e+04  -1.107450e+05  -4.841874e+05  -5.043883e+04   3.216666e+04  -4.615559e+05   8.168682e+04   3.090030e+05  -2.682264e+05   2.401417e+05  -7.004888e+05   8.763245e+05  -4.923336e+04   3.255452e+04  -4.619523e+05   8.208669e+04   3.102055e+05  -2.683062e+05   2.397287e+05  -7.005787e+05   8.771436e+05  -2.710705e+01   1.063052e+02  -2.446515e-02  -1.889877e+02   2.593204e+02  -2.165414e-02  -9.264583e+03   1.641082e+03   6.548306e-01   6.692695e-02   4.043012e-01  -9.121740e-01   1.354290e-01   9.020820e-01   4.097646e-01  -9.885240e-01   1.509591e-01  -5.619493e-03   9.130854e+03   5.246439e+02   9.763556e-03  -1.580015e+03  -6.518857e-01   6.942753e-02   4.293447e+07   1.385849e+06  -2.850647e-01  -7.627916e+06  -3.030988e+03   5.332073e+02   1.477344e+07   2.951718e+07  -4.411712e+03  -8.907552e+02   3.280753e-01   1.983030e+03  -2.754212e+01   1.237856e+01  -1.767380e+03   3.535759e+03  -7.767813e+00   1.192024e+00   3.178105e-02  -8.400432e+00  -4.491834e+00  -7.657798e-02  -3.506664e+00  -5.979435e+00  -1.084673e+01  -7.767813e+00  -4.491834e+00  -1.084673e+01  -3.604204e+00  -1.737442e+00  -3.028007e+00   4.796228e+00   1.769223e+00   2.951429e+00   8.893176e+01   1.307010e+06   1.306526e+06   1.307478e+06   9.414916e+03   9.414916e+03   1.783851e+01   1.576460e+01   8.348039e+00  -4.655391e+01   4.668519e+01  -7.568129e+01  -4.148753e+01  -2.249291e+01  -7.173585e-01  -5.869340e-01   3.753735e-01  -3.484662e-01   7.688162e-01   5.361837e-01  -6.032977e-01   2.538309e-01  -7.560435e-01  -3.212819e+05   9.250711e+04   1.365790e+06   6.168877e-01  -6.193716e-01  -4.856216e-01   7.793838e-01   5.666472e-01   2.673422e-01  -1.095920e-01   5.434057e-01  -8.322859e-01  -1.371805e+01  -7.546124e+00  -1.842200e+00  -4.861430e-01  -4.380745e-01  -7.561453e-01  -7.394625e-01  -2.548796e-01   6.230824e-01   4.656825e-01  -8.620482e-01   2.000317e-01
   1.500000e-02   1.500000e-02   3.613558e-01   8.828560e+00   2.991622e+02   0.000000e+00   0.000000e+00   0.000000e+00   0.000000e+00   0.000000e+00   0.000000e+00   0.000000e+00   0.000000e+00   0.000000e+00   0.000000e+00   0.000000e+00   0.000000e+00   0.000000e+00   0.000000e+00   0.000000e+00   0.000000e+00   0.000000e+00   0.000000e+00   0.000000e+00   0.000000e+00   0.000000e+00   0.000000e+00   0.000000e+00   0.000000e+00   0.000000e+00   0.000000e+00   0.000000e+00   0.000000e+00   0.000000e+00   0.000000e+00   0.000000e+00   0.000000e+00   0.000000e+00   0.000000e+00   0.000000e+00   0.000000e+00   0.000000e+00   0.000000e+00   0.000000e+00   0.000000e+00   0.000000e+00   0.000000e+00   0.000000e+00   0.000000e+00   0.000000e+00   0.000000e+00   0.000000e+00   0.000000e+00   0.000000e+00   0.000000e+00   0.000000e+00   0.000000e+00   0.000000e+00   0.000000e+00   0.000000e+00   0.000000e+00   0.000000e+00   0.000000e+00   0.000000e+00   0.000000e+00  -5.000000e-01  -5.000000e-01  -5.000000e-01   0.000000e+00   0.000000e+00   0.000000e+00  -5.000000e-01   0.000000e+00   0.000000e+00   0.000000e+00   0.000000e+00   0.000000e+00   0.000000e+00   0.000000e+00   0.000000e+00   0.000000e+00   0.000000e+00   0.000000e+00   0.000000e+00   0.000000e+00   0.000000e+00   0.000000e+00   0.000000e+00   0.000000e+00   0.000000e+00   0.000000e+00   0.000000e+00   0.000000e+00   0.000000e+00   0.000000e+00   0.000000e+00   0.000000e+00   0.000000e+00   0.000000e+00   0.000000e+00   0.000000e+00   0.000000e+00   0.000000e+00   0.000000e+00   0.000000e+00   0.000000e+00   0.000000e+00   0.000000e+00   0.000000e+00   0.000000e+00   0.000000e+00   0.000000e+00   0.000000e+00   0.000000e+00   0.000000e+00   0.000000e+00   0.000000e+00   0.000000e+00   0.000000e+00   0.000000e+00   0.000000e+00   0.000000e+00   0.000000e+00   0.000000e+00   0.000000e+00   0.000000e+00   0.000000e+00   0.000000e+00   0.000000e+00   0.000000e+00   0.000000e+00   0.000000e+00   0.000000e+00   0.000000e+00   0.000000e+00   0.000000e+00   0.000000e+00   0.000000e+00   0.000000e+00   0.000000e+00   0.000000e+00   0.000000e+00   0.000000e+00   0.000000e+00   0.000000e+00   0.000000e+00
