     VARIABLES=
              x              y              z      nomin_den    nomin_voidr      fabric_xx      fabric_yy      fabric_zz      fabric_xy      fabric_xz      fabric_yz       sigma_xx       sigma_yy       sigma_zz       sigma_xy       sigma_xz       sigma_yz    sigmaDot_xx    sigmaDot_yy    sigmaDot_zz    sigmaDot_xy    sigmaDot_xz    sigmaDot_yz       Oldro_xx       Oldro_xy       Oldro_xz       Oldro_yx       Oldro_yy       Oldro_yz       Oldro_zx       Oldro_zy       Oldro_zz       Trues_xx       Trues_xy       Trues_xz       Trues_yx       Trues_yy       Trues_yz       Trues_zx       Trues_zy       Trues_zz           F_xX           F_xY           F_xZ           F_yX           F_yY           F_yZ           F_zX           F_zY           F_zZ           R_xX           R_xY           R_xZ           R_yX           R_yY           R_yZ           R_zX           R_zY           R_zZ           U_xX           U_yY           U_zZ           U_xY           U_xZ           U_yZ       Green_xx       Green_yy       Green_zz       Green_xy       Green_xz       Green_yz      Green_vol      Green_shr       Euler_xx       Euler_yy       Euler_zz       Euler_xy       Euler_xz       Euler_yz      Euler_vol      Euler_shr           l_xx           l_xy           l_xz           l_yx           l_yy           l_yz           l_zx           l_zy           l_zz           d_xx           d_yy           d_zz           d_xy           d_xz           d_yz           w_xy           w_xz           w_yz     norm_sigma  norm_sigmaDot     norm_Oldro     norm_Trues         norm_F         norm_U         norm_l         norm_d         norm_w              p              q        sigma_1        sigma_2        sigma_3     sigma_1_v1     sigma_1_v2     sigma_1_v3     sigma_2_v1     sigma_2_v2     sigma_2_v3     sigma_3_v1     sigma_3_v2     sigma_3_v3     sigmaDot_1     sigmaDot_2     sigmaDot_3  sigmaDot_1_v1  sigmaDot_1_v2  sigmaDot_1_v3  sigmaDot_2_v1  sigmaDot_2_v2  sigmaDot_2_v3  sigmaDot_3_v1  sigmaDot_3_v2  sigmaDot_3_v3            d_1            d_2            d_3         d_1_v1         d_1_v2         d_1_v3         d_2_v1         d_2_v2         d_2_v3         d_3_v1         d_3_v2         d_3_v3
ZONE I=2, J=2, K=2, DATAPACKING=POINT, STRANDID=5, SOLUTIONTIME=33
   5.000000e-03   5.000000e-03   5.253276e-03   1.575477e+03   6.820305e-01   3.406655e-01   3.072872e-01   3.520473e-01   6.655942e-03  -4.444864e-04   6.089434e-04  -3.168721e+02  -2.444526e+02  -3.733230e+02  -2.415414e+01   2.389809e+01  -2.604572e+01   5.061207e+01   1.032303e+02   2.466527e+01   2.895348e+01  -8.607295e+00   3.417375e+01   5.558063e+01   3.109802e+01  -1.257696e+01   3.213780e+01   1.040200e+02   3.539535e+01  -5.136703e+00   3.246246e+01   2.465842e+01   5.282640e+01   3.088808e+01  -1.236924e+01   3.192786e+01   1.018953e+02   3.516896e+01  -4.928985e+00   3.223607e+01   2.141352e+01   5.034238e+02  -8.521018e+02  -2.727863e-03  -3.383595e+02  -1.008457e+03   2.791605e-03  -8.290969e+01   1.699492e+02   1.989637e-02   7.728448e-01  -6.101259e-01   1.745202e-01  -6.220922e-01  -7.827267e-01   1.844481e-02  -1.253480e-01   1.228227e-01   9.844808e-01   6.099518e+02   1.330109e+03   1.916302e-02  -5.249208e+01  -6.338821e-03   1.923002e-03   1.873978e+05   8.859723e+05  -4.997945e-01  -5.091892e+04  -1.983720e+00   1.445288e+00   3.577899e+05   5.423465e+05  -4.097433e+01   3.705370e-02  -1.319149e+03  -4.381821e+00  -2.339477e+02  -2.471691e+01  -4.533620e+02   9.077239e+02   7.732971e-03   1.073640e-03  -3.341053e-04   6.922661e-03   9.626974e-04  -2.949308e-04   9.976546e-05   1.355294e-05  -3.738771e-06   7.732971e-03   9.626974e-04  -3.738771e-06   3.998151e-03  -1.171699e-04  -1.406889e-04  -2.924510e-03  -2.169354e-04  -1.542419e-04   5.506368e+02   1.342365e+02   1.378715e+02   1.343822e+02   1.465177e+03   1.465177e+03   1.048858e-02   9.631360e-03   4.152978e-03  -3.115492e+02   1.342316e+02  -3.841410e+02  -3.205730e+02  -2.299338e+02  -2.914689e-01   1.263964e-01   9.481929e-01  -9.025709e-01  -3.646951e-01  -2.288302e-01   3.168780e-01  -9.225082e-01   2.203790e-01   7.088813e+00   4.692374e+01   1.244951e+02  -3.641153e-01   3.980713e-01  -8.419972e-01  -8.670578e-01   1.851958e-01   4.625076e-01   3.400454e-01   8.984663e-01   2.777182e-01  -8.977895e-04   2.940391e-07   9.589425e-03   4.177404e-01  -9.043374e-01  -8.756064e-02   5.243159e-02  -7.221693e-02   9.960099e-01   9.070523e-01   4.206645e-01  -1.724792e-02
   5.000000e-03   5.000000e-03   1.575983e-02   1.087368e+03   1.437076e+00   3.545070e-01   3.195768e-01   3.259162e-01  -8.150708e-03   2.264883e-02   1.076028e-03  -6.714214e+01  -7.702210e+01  -1.059390e+02   7.958208e+00   6.589888e-01   1.494140e+00  -1.044729e+02  -8.053622e+01  -1.049696e+02  -2.682173e+01   4.506046e+01   4.168349e+00  -1.044746e+02  -4.740530e+01   2.315917e+01  -6.234130e+00  -8.053485e+01   2.115505e+01   6.696634e+01  -1.281918e+01  -1.049701e+02  -1.044745e+02  -4.740532e+01   2.315917e+01  -6.234148e+00  -8.053468e+01   2.115505e+01   6.696634e+01  -1.281919e+01  -1.049698e+02   4.045294e+02  -1.217119e+03   1.976894e-02  -1.073972e+03   1.174090e+03  -1.297954e-03  -1.136245e+02  -8.644468e+02   2.675479e-02   6.242777e-03  -6.724536e-01  -7.401129e-01  -8.660901e-01   3.663231e-01  -3.401401e-01  -4.998490e-01  -6.431279e-01   5.801185e-01   9.894770e+02   1.804502e+03   1.331190e-03  -5.923729e+02  -1.212580e-02  -3.097592e-02   6.649847e+05   1.803567e+06  -4.994458e-01  -8.275388e+05   3.175541e+00  -2.435658e+01   8.228503e+05   1.422076e+06  -1.548285e+05  -3.270260e+04  -9.510877e+04  -7.115749e+04   1.213494e+05   5.577067e+04  -9.421329e+04   1.884276e+05  -9.918966e-06   1.920515e-05   2.615977e-05   8.576672e-06   9.682814e-06  -3.350807e-06  -6.903438e-06  -1.275149e-06  -2.016873e-06  -9.918966e-06   9.682814e-06  -2.016873e-06   1.389091e-05   9.628164e-06  -2.312978e-06   5.314240e-06   1.653160e-05  -1.037829e-06   1.476331e+02   1.906251e+02   1.906262e+02   1.906259e+02   2.221960e+03   2.221960e+03   3.719479e-05   2.789674e-05   2.460131e-05  -8.336774e+01   3.764945e+01  -1.060177e+02  -8.140907e+01  -6.267644e+01   6.765319e-03   4.962510e-02  -9.987450e-01  -4.881451e-01   8.718448e-01   4.001315e-02   8.727363e-01   4.872618e-01   3.012256e-02  -1.719290e+02  -8.419066e+01  -3.385914e+01  -7.011436e-01   5.190077e-02   7.111286e-01   2.332507e-01   9.591679e-01   1.599720e-01  -6.737891e-01   2.780345e-01  -6.846203e-01  -2.181933e-05   2.342569e-06   1.722374e-05  -8.096957e-01   3.892801e-01   4.391514e-01  -3.222973e-01   3.303887e-01  -8.871120e-01  -4.904257e-01  -8.598281e-01  -1.420503e-01
   5.000000e-03   1.500000e-02   5.253276e-03   1.524977e+03   7.377309e-01   3.310387e-01   3.223763e-01   3.465850e-01  -4.635130e-04   1.630605e-03   1.543684e-02  -2.982436e+02  -2.535706e+02  -2.910485e+02  -7.192050e+00   2.961660e+01  -3.483863e+01  -3.537310e+01  -4.077617e+01   6.456624e+00   3.224708e+01  -2.419119e+01   6.599528e+00  -3.378910e+01   2.775183e+01  -3.261392e+01   3.107928e+01  -4.060554e+01   6.147413e+00  -2.053842e+01   8.326660e+00   6.527045e+00  -3.450084e+01   2.773467e+01  -3.254324e+01   3.106211e+01  -4.121067e+01   6.064273e+00  -2.046774e+01   8.243519e+00   5.832475e+00  -4.851092e+02   4.747575e+01  -1.251355e+00  -3.665741e+02   1.904505e+02  -1.065015e+00  -5.600297e+02  -5.987843e+02  -5.650520e-01  -6.540530e-01   2.627135e-01  -7.093633e-01  -5.545881e-01   4.712034e-01   6.858567e-01  -5.144382e-01  -8.419911e-01   1.624943e-01   8.086854e+02   6.063844e+02   6.540026e-02   1.713643e+02   1.699781e+00  -3.548177e-01   3.416699e+05   1.985335e+05   1.009715e+00   1.212459e+05   6.569482e+02   3.805133e+01   1.800681e+05   2.426002e+05  -6.691172e+01  -6.320537e+01  -3.063217e+00   6.553235e+01   1.549847e+01  -1.506639e+01  -4.439344e+01   8.978687e+01   1.879332e-03  -6.653879e-04  -7.978031e-03  -7.920103e-03   3.802430e-04   1.316381e-03   6.560766e-05   6.592785e-06   1.268642e-04   1.879332e-03   3.802430e-04   1.268642e-04  -4.292745e-03  -3.956212e-03   6.614870e-04   3.627357e-03  -4.021820e-03   6.548942e-04   4.921806e+02   7.983572e+01   7.849726e+01   7.899009e+01   1.039429e+03   1.039429e+03   1.149998e-02   8.527969e-03   7.715133e-03  -2.809542e+02   9.029835e+01  -3.295981e+02  -2.873448e+02  -2.259198e+02  -6.260717e-01   2.751137e-01   7.296209e-01  -7.182198e-01  -5.678064e-01  -4.021894e-01  -3.036356e-01   7.758276e-01  -5.530796e-01  -7.604855e+01  -7.529175e+00   1.388508e+01  -6.801946e-01   7.008007e-01  -2.149736e-01  -5.976578e-01  -6.999972e-01  -3.909080e-01   4.244296e-01   1.374129e-01  -8.949733e-01  -4.456743e-03  -4.156672e-04   7.258850e-03   6.775354e-01   5.318232e-01   5.080451e-01   1.362667e-02   6.815618e-01  -7.316337e-01   7.353639e-01  -5.026307e-01  -4.545353e-01
   5.000000e-03   1.500000e-02   1.575983e-02   1.197247e+03   1.213411e+00   3.400274e-01   3.267205e-01   3.332520e-01   1.745940e-02   2.038348e-02   1.340121e-03  -1.010413e+02  -8.765219e+01  -1.334659e+02  -1.025476e+01  -9.306056e+00  -1.403913e+00   1.121443e+01  -2.593976e+02  -1.957813e+02  -4.290043e+02  -1.838634e+02   2.902244e+02   1.121263e+01  -2.379425e+02  -1.325928e+02  -6.200651e+02  -2.593959e+02   9.957200e+01  -2.351187e+02   4.808724e+02  -1.957975e+02   1.121929e+01  -2.379418e+02  -1.325921e+02  -6.200645e+02  -2.593901e+02   9.957210e+01  -2.351181e+02   4.808725e+02  -1.957887e+02  -6.096816e+02  -5.895362e+01  -2.410454e-02  -7.429502e+02   1.052907e+03   2.456057e-03   3.660541e+02  -5.339303e+02   1.597890e-02  -8.959268e-01  -4.439586e-01  -1.469517e-02  -4.020932e-01   7.964934e-01   4.515742e-01   1.887757e-01  -4.104863e-01   8.921125e-01   9.140675e+02   1.083977e+03   1.571829e-02  -4.713417e+02   2.362477e-02   6.098535e-03   5.288407e+05   6.985845e+05  -4.995788e-01  -4.708809e+05   9.360255e+00  -2.262284e+00   4.091416e+05   6.874882e+05   6.545989e-02  -4.122326e+02  -1.610354e+03   1.339209e+01   2.645710e+01  -8.153846e+02  -6.741738e+02   1.349348e+03  -1.028941e-05  -1.615674e-05   3.244871e-05   2.088602e-05   7.789607e-06  -2.233752e-05   3.999711e-05   2.569749e-06  -6.341431e-05  -1.028941e-05   7.789607e-06  -6.341431e-05   2.364641e-06   3.622291e-05  -9.883884e-06  -1.852138e-05  -3.774201e-06  -1.245363e-05   1.899812e+02   9.278277e+02   9.278257e+02   9.278215e+02   1.566797e+03   1.566797e+03   8.968526e-05   8.377761e-05   3.201184e-05  -1.073864e+02   4.738760e+01  -1.362918e+02  -1.039742e+02  -8.189340e+01   2.776012e-01   8.612923e-02   9.568277e-01  -8.229961e-01  -4.924734e-01   2.831033e-01   4.955956e-01  -8.660553e-01  -6.582719e-02  -8.627186e+02  -3.455080e+02   7.642621e+02  -4.509692e-01  -7.918024e-01   4.119172e-01  -6.167708e-01  -5.713274e-02  -7.850667e-01   6.451516e-01  -6.080993e-01  -4.625955e-01  -8.284912e-05   6.089024e-06   1.084599e-05  -4.468433e-01   1.084923e-01   8.880093e-01  -7.143395e-01  -6.408341e-01  -2.811595e-01  -5.385630e-01   7.599744e-01  -3.638528e-01
   1.500000e-02   5.000000e-03   5.253276e-03   1.713035e+03   5.469623e-01   3.321782e-01   3.199342e-01   3.478876e-01   4.594284e-03  -1.142049e-02   2.028106e-02  -2.891352e+02  -2.588172e+02  -3.695982e+02   1.824918e+01  -3.719766e+00  -4.822417e+01   2.105384e+00  -9.867074e+01   4.082887e+01  -8.605346e+02  -6.360760e+02  -5.367422e+02   2.103433e+00   2.706320e+01  -1.078954e+03  -1.748096e+03  -9.868150e+01  -1.814796e+02  -1.931617e+02  -8.920078e+02   4.082625e+01   2.110436e+00   2.706276e+01  -1.078954e+03  -1.748096e+03  -9.867523e+01  -1.814784e+02  -1.931616e+02  -8.920066e+02   4.083520e+01  -7.279410e+00  -1.216254e+02  -2.038509e-02  -1.149837e+03   4.503805e+02   1.728095e-03   1.262857e+03  -8.441053e+02   1.515193e-02  -2.039294e-01  -4.244464e-01  -8.821893e-01  -8.860387e-01  -3.032174e-01   3.507058e-01   4.163510e-01  -8.531731e-01   3.142410e-01   1.546076e+03   6.352282e+02   2.335091e-02  -7.256956e+02   8.934480e-03  -4.798828e-03   1.458492e+06   4.650740e+05  -4.996759e-01  -7.914816e+05   8.648042e+00  -4.766088e+00   6.411887e+05   1.255126e+06  -7.131540e+02  -1.122870e+02  -9.004814e+01   2.837092e+02   2.542047e+02  -1.010577e+02  -3.051630e+02   6.113261e+02  -6.496230e-08   6.055605e-05   3.980313e-05   5.091243e-07  -2.267101e-05   1.027875e-05   8.101452e-07  -1.589634e-05  -1.486169e-06  -6.496230e-08  -2.267101e-05  -1.486169e-06   3.053259e-05   2.030664e-05  -2.808796e-06   3.002346e-05   1.949649e-05   1.308754e-05   5.408634e+02   2.257908e+03   2.257886e+03   2.257885e+03   1.961411e+03   1.961411e+03   7.827371e-05   5.675529e-05   5.390372e-05  -3.058502e+02   1.335899e+02  -3.877271e+02  -2.952578e+02  -2.345656e+02   3.029157e-02  -3.538739e-01  -9.348025e-01  -9.469974e-01   2.890731e-01  -1.401167e-01   3.198099e-01   8.894999e-01  -3.263611e-01  -2.087303e+03   1.885189e+02   1.843048e+03  -6.198218e-01  -7.020952e-01  -3.505470e-01  -4.472663e-01  -5.098226e-02   8.929466e-01  -6.448052e-01   7.102557e-01  -2.824236e-01  -4.836020e-05  -5.123003e-06   2.926106e-05  -5.970282e-01   7.427367e-01   3.031493e-01   2.196231e-01   5.147793e-01  -8.287147e-01  -7.715718e-01  -4.281874e-01  -4.704599e-01
   1.500000e-02   5.000000e-03   1.575983e-02   1.115058e+03   1.376559e+00   3.330019e-01   3.613500e-01   3.056481e-01   1.096332e-02   3.956540e-03   2.199388e-03  -1.124616e+02  -1.196933e+02  -1.336954e+02  -2.031104e+00   1.168764e+00   1.557590e+01  -3.573508e+00   1.046419e+02  -1.633814e+00   5.204355e+01  -1.045529e+01  -5.117830e+01  -3.573255e+00   2.969297e+01  -1.515131e+01   7.439424e+01   1.046425e+02  -7.335564e+01  -5.760355e+00  -2.900249e+01  -1.633463e+00  -3.573725e+00   2.969296e+01  -1.515131e+01   7.439423e+01   1.046420e+02  -7.335558e+01  -5.760350e+00  -2.900243e+01  -1.634022e+00  -1.124083e+03   1.271325e+03   1.067151e+01   5.422837e+02  -2.595663e+02  -1.056540e+01   1.155394e+03   5.020247e+02   3.861076e+00  -5.138166e-01   8.180652e-01  -2.583831e-01   3.000325e-01  -1.108089e-01  -9.474713e-01   8.037245e-01   5.643498e-01   1.885107e-01   1.668894e+03   1.352107e+03   7.980928e+00  -3.276168e+02  -5.549919e+00   1.207973e+01   1.446285e+06   9.678349e+05   1.197083e+02  -4.948988e+05  -6.632021e+03   9.123865e+03   8.047466e+05   1.024922e+06   4.994273e-01   4.927722e-01   4.997233e-01  -2.034181e-03   3.976825e-04   1.413318e-03   4.973076e-01   5.384273e-03   1.056545e-06   1.867748e-06  -3.269857e-06  -2.056156e-06   2.346011e-06  -1.314674e-06  -6.009169e-07  -4.516274e-06   7.805851e-07   1.056545e-06   2.346011e-06   7.805851e-07  -9.420410e-08  -1.935387e-06  -2.915474e-06   1.961952e-06  -1.334470e-06   1.600800e-06   2.129431e+02   1.544872e+02   1.544882e+02   1.544878e+02   2.197381e+03   2.197381e+03   6.937132e-06   5.633697e-06   4.047871e-06  -1.219501e+02   3.307449e+01  -1.439097e+02  -1.126944e+02  -1.092462e+02  -6.619186e-02  -5.436978e-01   8.366668e-01  -9.425765e-01  -2.410300e-01  -2.312012e-01  -3.273654e-01   8.039261e-01   4.965226e-01  -4.318819e+01  -5.327583e+00   1.479503e+02  -8.559478e-01   4.721149e-01   2.108575e-01  -2.737540e-01  -6.782528e-02  -9.594053e-01   4.386480e-01   8.789239e-01  -1.872982e-01  -2.263146e-06   1.514432e-06   4.931856e-06  -4.510275e-01  -4.836777e-01  -7.500867e-01  -8.400570e-01   5.139278e-01   1.737311e-01  -3.014606e-01  -7.084731e-01   6.381124e-01
   1.500000e-02   1.500000e-02   5.253276e-03   1.596827e+03   6.595413e-01   3.126808e-01   3.299772e-01   3.573421e-01  -2.151459e-03   1.086174e-02   2.136808e-02  -3.138863e+02  -3.484324e+02  -3.551536e+02  -4.051021e+01   1.803885e+01   2.113649e+01   1.973384e+01  -3.490443e+01  -9.480448e+01  -5.400328e+01   1.350869e+01   5.616963e+01   3.477098e+01   4.469857e+01   2.896206e+00   4.472491e+01   4.198614e+01   6.079870e+00  -2.251706e+00   5.748393e+00  -8.716182e+01   2.908653e+00   4.058640e+01   4.727284e+00   4.061277e+01   6.617072e+00   8.225374e+00  -4.205673e-01   7.893981e+00  -1.232132e+02   5.906023e+02  -2.620746e+02   4.541667e-03  -1.218283e+03   1.024768e+03  -4.762398e-03  -8.171238e+02   7.692288e+02   9.152923e-03   8.182060e-01   5.137333e-01  -2.581028e-01  -5.477728e-01   5.602574e-01  -6.213346e-01  -1.745963e-01   6.497613e-01   7.398151e-01   1.293243e+03   9.393123e+02   8.558295e-03  -9.100754e+02   4.726666e-03   5.612253e-03   1.250357e+06   8.552720e+05  -4.999365e-01  -1.015897e+06   5.025981e-01   4.850420e-01   7.018763e+05   1.385902e+06  -4.544204e+02  -2.635139e+03  -3.735948e+03  -1.094991e+03   1.303759e+03   3.138141e+03  -2.275169e+03   4.551338e+03   2.169465e-02   2.662785e-03  -3.331947e-02   2.908110e-01   6.943200e-02  -1.169594e-01  -1.651384e-03  -4.928195e-03   1.038248e-02   2.169465e-02   6.943200e-02   1.038248e-02   1.467369e-01  -1.748543e-02  -6.094381e-02  -1.440741e-01  -1.583404e-02  -5.601561e-02   5.923599e+02   1.520417e+02   1.210404e+02   1.366853e+02   2.052136e+03   2.052136e+03   3.237192e-01   2.377025e-01   2.197536e-01  -3.391574e+02   9.333020e+01  -3.945554e+02  -3.359902e+02  -2.869267e+02  -4.662996e-01  -6.727817e-01   5.743948e-01   2.692651e-01   5.105536e-01   8.165974e-01  -8.426511e-01   5.354436e-01  -5.691433e-02  -1.378432e+02  -2.818764e+01   5.605576e+01  -2.466877e-01  -5.597711e-01   7.910762e-01  -5.395255e-01  -5.987678e-01  -5.919370e-01   8.050201e-01  -5.728294e-01  -1.543021e-01  -1.093943e-01  -1.306099e-04   2.110340e-01  -7.111246e-01   6.631258e-01   2.335937e-01  -3.595554e-01  -5.750204e-02  -9.313503e-01   6.041703e-01   7.462960e-01  -2.793216e-01
   1.500000e-02   1.500000e-02   1.575983e-02   1.193231e+03   1.220861e+00   3.295687e-01   3.120910e-01   3.583403e-01  -1.015338e-02  -9.363665e-03  -6.333301e-03  -7.718822e+01  -7.533241e+01  -1.001705e+02   4.687239e-01   1.207572e+01   4.112289e+00  -4.162701e+01  -1.010791e+02  -2.552134e+01  -6.064461e+01   3.778805e+01   3.107481e+01  -4.162771e+01  -5.862503e+01   4.039361e+01  -6.266529e+01  -1.010794e+02   3.058665e+01   3.518301e+01   3.156302e+01  -2.552139e+01  -4.162719e+01  -5.862503e+01   4.039353e+01  -6.266530e+01  -1.010789e+02   3.058662e+01   3.518293e+01   3.156299e+01  -2.552072e+01  -6.868624e+02   6.663999e+02  -2.046772e-02  -8.595599e+02   5.223412e+02  -1.319020e-02   4.212961e+02  -3.533681e+02   1.196912e-02  -9.087297e-02   9.288243e-01   3.592039e-01  -9.737723e-01  -1.584258e-01   1.633060e-01   2.085898e-01  -3.349427e-01   9.188600e-01   9.873109e+02   6.545742e+02   1.491819e-03  -6.429081e+02   1.720085e-02  -2.093021e-02   6.940563e+05   4.208986e+05  -4.996319e-01  -5.277906e+05   1.521941e+01  -1.237949e+01   3.716515e+05   7.310363e+05  -2.902409e+04  -5.996226e+03  -1.898803e+05  -1.319290e+04  -7.423753e+04  -3.374408e+04  -7.496686e+04   1.499347e+05  -4.508493e-06  -1.012392e-06   1.972282e-07  -6.265236e-06  -2.257663e-06  -9.296121e-07   2.370302e-06   5.043118e-07   7.082299e-08  -4.508493e-06  -2.257663e-06   7.082299e-08  -3.638814e-06   1.283765e-06  -2.126501e-07   2.626422e-06  -1.086537e-06  -7.169620e-07   1.483004e+02   1.573723e+02   1.573732e+02   1.573726e+02   1.493289e+03   1.493289e+03   8.513662e-06   7.436199e-06   4.145525e-06  -8.423037e+01   3.260583e+01  -1.057750e+02  -7.595863e+01  -7.095751e+01  -3.847851e-01  -1.177356e-01   9.154664e-01  -4.637705e-01   8.822013e-01  -8.147267e-02  -7.980334e-01  -4.559158e-01  -3.940603e-01  -1.566195e+02  -1.856985e+01   6.961891e+00  -5.275563e-01  -7.827874e-01   3.300428e-01  -3.462883e-01   5.529167e-01   7.578704e-01  -7.757376e-01   2.855293e-01  -5.627648e-01  -7.305210e-06  -6.291374e-07   1.239014e-06  -8.074039e-01  -5.768440e-01   1.238947e-01  -3.082587e-01   5.914914e-01   7.450601e-01  -5.030660e-01   5.633728e-01  -6.553897e-01
