     VARIABLES=
              x              y              z      nomin_den    nomin_voidr      fabric_xx      fabric_yy      fabric_zz      fabric_xy      fabric_xz      fabric_yz       sigma_xx       sigma_yy       sigma_zz       sigma_xy       sigma_xz       sigma_yz    sigmaDot_xx    sigmaDot_yy    sigmaDot_zz    sigmaDot_xy    sigmaDot_xz    sigmaDot_yz       Oldro_xx       Oldro_xy       Oldro_xz       Oldro_yx       Oldro_yy       Oldro_yz       Oldro_zx       Oldro_zy       Oldro_zz       Trues_xx       Trues_xy       Trues_xz       Trues_yx       Trues_yy       Trues_yz       Trues_zx       Trues_zy       Trues_zz           F_xX           F_xY           F_xZ           F_yX           F_yY           F_yZ           F_zX           F_zY           F_zZ           R_xX           R_xY           R_xZ           R_yX           R_yY           R_yZ           R_zX           R_zY           R_zZ           U_xX           U_yY           U_zZ           U_xY           U_xZ           U_yZ       Green_xx       Green_yy       Green_zz       Green_xy       Green_xz       Green_yz      Green_vol      Green_shr       Euler_xx       Euler_yy       Euler_zz       Euler_xy       Euler_xz       Euler_yz      Euler_vol      Euler_shr           l_xx           l_xy           l_xz           l_yx           l_yy           l_yz           l_zx           l_zy           l_zz           d_xx           d_yy           d_zz           d_xy           d_xz           d_yz           w_xy           w_xz           w_yz     norm_sigma  norm_sigmaDot     norm_Oldro     norm_Trues         norm_F         norm_U         norm_l         norm_d         norm_w              p              q        sigma_1        sigma_2        sigma_3     sigma_1_v1     sigma_1_v2     sigma_1_v3     sigma_2_v1     sigma_2_v2     sigma_2_v3     sigma_3_v1     sigma_3_v2     sigma_3_v3     sigmaDot_1     sigmaDot_2     sigmaDot_3  sigmaDot_1_v1  sigmaDot_1_v2  sigmaDot_1_v3  sigmaDot_2_v1  sigmaDot_2_v2  sigmaDot_2_v3  sigmaDot_3_v1  sigmaDot_3_v2  sigmaDot_3_v3            d_1            d_2            d_3         d_1_v1         d_1_v2         d_1_v3         d_2_v1         d_2_v2         d_2_v3         d_3_v1         d_3_v2         d_3_v3
ZONE I=2, J=2, K=2, DATAPACKING=POINT, STRANDID=5, SOLUTIONTIME=28
   5.000000e-03   5.000000e-03   5.253277e-03   1.575477e+03   6.820306e-01   3.406689e-01   3.072807e-01   3.520504e-01   6.656578e-03  -4.465414e-04   6.058474e-04  -3.168708e+02  -2.443171e+02  -3.729460e+02  -2.432337e+01   2.399919e+01  -2.630995e+01  -8.322083e+01  -1.381661e+02  -4.569854e+02  -4.171151e+01  -7.574839e+01  -1.318627e+02  -7.548775e+01  -4.592587e+01  -7.067526e+01  -2.916735e+01  -1.369304e+02  -1.330808e+02  -8.161492e+01  -1.314200e+02  -4.569986e+02  -7.977370e+01  -4.625486e+01  -7.035065e+01  -2.949634e+01  -1.402350e+02  -1.334367e+02  -8.129032e+01  -1.317758e+02  -4.620430e+02   5.033904e+02  -8.522402e+02  -2.725244e-03  -3.379510e+02  -1.008096e+03   2.793977e-03  -8.307199e+01   1.698045e+02   1.989512e-02   7.727994e-01  -6.101464e-01   1.746495e-01  -6.220948e-01  -7.827309e-01   1.817394e-02  -1.256148e-01   1.226933e-01   9.844629e-01   6.096924e+02   1.329893e+03   1.916082e-02  -5.280950e+01  -6.343306e-03   1.916864e-03   1.872563e+05   8.857015e+05  -4.997945e-01  -5.121427e+04  -1.984408e+00   1.442124e+00   3.576524e+05   5.422374e+05  -4.104532e+01   5.045221e-02  -1.319404e+03  -4.321640e+00  -2.341705e+02  -2.435896e+01  -4.534663e+02   9.079326e+02   1.203458e-02   1.670561e-03  -5.208309e-04   1.082453e-02   1.501640e-03  -4.680317e-04   1.317267e-04   1.724009e-05  -1.035174e-05   1.203458e-02   1.501640e-03  -1.035174e-05   6.247546e-03  -1.945521e-04  -2.253958e-04  -4.576985e-03  -3.262788e-04  -2.426359e-04   5.503692e+02   5.336514e+02   5.318775e+02   5.378202e+02   1.464895e+03   1.464895e+03   1.635712e-02   1.501090e-02   6.498326e-03  -3.113780e+02   1.343738e+02  -3.839071e+02  -3.206482e+02  -2.295786e+02  -2.929549e-01   1.275525e-01   9.475799e-01  -9.017126e-01  -3.664245e-01  -2.294506e-01   3.179495e-01  -9.216634e-01   2.223616e-01  -5.214789e+02  -9.180799e+01  -6.508549e+01   1.962388e-01   3.324112e-01   9.224929e-01   1.447344e-01   9.206610e-01  -3.625399e-01  -9.698156e-01   2.046608e-01   1.325581e-01  -1.413734e-03  -4.575451e-06   1.494418e-02   4.186759e-01  -9.039453e-01  -8.714033e-02   5.314828e-02  -7.140094e-02   9.960307e-01   9.065791e-01   4.216454e-01  -1.814928e-02
   5.000000e-03   5.000000e-03   1.575983e-02   1.087368e+03   1.437077e+00   3.546965e-01   3.172344e-01   3.280692e-01  -1.147998e-02   2.341208e-02   1.942716e-03  -6.579860e+01  -7.469546e+01  -1.048615e+02   6.928496e+00   5.572872e-01   1.803526e+00   2.371624e+02  -1.182900e+03   2.175975e+03  -5.895669e+02   2.292160e+02  -2.412781e+03   2.372238e+02   1.229214e+03   8.301117e+03  -2.408368e+03  -1.182952e+03   3.919573e+02  -7.842821e+03  -5.217688e+03   2.175870e+03   2.372514e+02   1.229211e+03   8.301116e+03  -2.408371e+03  -1.182920e+03   3.919565e+02  -7.842821e+03  -5.217688e+03   2.175914e+03   4.045414e+02  -1.217108e+03   1.977115e-02  -1.074078e+03   1.173972e+03  -1.301116e-03  -1.136931e+02  -8.643369e+02   2.675054e-02   6.237486e-03  -6.724982e-01  -7.400724e-01  -8.661046e-01   3.662871e-01  -3.401421e-01  -4.998240e-01  -6.431017e-01   5.801691e-01   9.896136e+02   1.804370e+03   1.330318e-03  -5.923581e+02  -1.212033e-02  -3.097596e-02   6.651111e+05   1.803320e+06  -4.994459e-01  -8.275195e+05   3.177198e+00  -2.435628e+01   8.228101e+05   1.421938e+06  -1.550257e+05  -3.274820e+04  -9.525692e+04  -7.125241e+04   1.215212e+05   5.585299e+04  -9.434361e+04   1.886882e+05   4.133242e-04  -4.337977e-04  -8.261923e-04   3.202964e-04  -3.306273e-04  -6.328539e-04   2.449133e-04  -2.307247e-04  -5.022814e-04   4.133242e-04  -3.306273e-04  -5.022814e-04  -5.675063e-05  -2.906395e-04  -4.317893e-04  -3.770471e-04  -5.355528e-04  -2.010646e-04   1.449414e+02   1.308805e+04   1.308807e+04   1.308807e+04   2.221905e+03   2.221905e+03   1.421099e-03   1.039570e-03   9.689254e-04  -8.178519e+01   3.762901e+01  -1.049770e+02  -7.847097e+01  -6.190762e+01   7.871306e-03   5.919690e-02  -9.982153e-01  -4.845143e-01   8.734666e-01   4.797839e-02   8.747479e-01   4.832719e-01   3.555707e-02  -9.954555e+03   1.492878e+03   9.691914e+03   5.933560e-01   5.255657e-01   6.096797e-01  -5.563481e-01   8.151554e-01  -1.612407e-01  -5.817262e-01  -2.435210e-01   7.760748e-01  -9.089126e-04  -1.501141e-05   5.043395e-04  -1.963543e-01  -5.989440e-01  -7.763447e-01   2.652032e-01  -7.946881e-01   5.460202e-01  -9.439874e-01  -9.867569e-02   3.148823e-01
   5.000000e-03   1.500000e-02   5.253277e-03   1.524977e+03   7.377310e-01   3.319137e-01   3.201230e-01   3.479632e-01  -1.811876e-03   1.908192e-03   1.592870e-02  -2.981414e+02  -2.533831e+02  -2.914160e+02  -7.243024e+00   2.966383e+01  -3.454337e+01  -7.798844e+02  -5.267005e+02   5.204670e+03   1.950798e+03  -3.258100e+04  -6.007364e+04  -7.813051e+02   6.573980e+02  -5.001894e+04   3.248351e+03  -5.266007e+02   2.213677e+02  -1.514346e+04  -1.203685e+05   5.204685e+03  -7.805276e+02   6.574169e+02  -5.001902e+04   3.248370e+03  -5.259399e+02   2.214578e+02  -1.514353e+04  -1.203684e+05   5.205445e+03  -4.851213e+02   4.746844e+01  -1.251532e+00  -3.665802e+02   1.904608e+02  -1.065354e+00  -5.600461e+02  -5.987572e+02  -5.651957e-01  -6.540456e-01   2.627035e-01  -7.093738e-01  -5.545836e-01   4.712322e-01   6.858405e-01  -5.144524e-01  -8.419781e-01   1.625163e-01   8.087080e+02   6.063619e+02   6.528755e-02   1.713591e+02   1.700153e+00  -3.549285e-01   3.416872e+05   1.985189e+05   1.010379e+00   1.212423e+05   6.571091e+02   3.804926e+01   1.800690e+05   2.426047e+05  -6.716804e+01  -6.344284e+01  -3.077631e+00   6.577908e+01   1.555928e+01  -1.512494e+01  -4.456284e+01   9.012567e+01  -2.460973e-03  -2.223674e-04  -8.414427e-04   7.424274e-03  -1.637932e-04   1.090173e-03  -6.040277e-05   2.643181e-05   1.691840e-05  -2.460973e-03  -1.637932e-04   1.691840e-05   3.600953e-03  -4.509227e-04   5.583025e-04  -3.823321e-03  -3.905200e-04   5.318707e-04   4.922051e+02   1.313726e+05   1.313727e+05   1.313727e+05   1.039431e+03   1.039431e+03   7.946927e-03   5.748678e-03   5.486925e-03  -2.809802e+02   9.015588e+01  -3.296716e+02  -2.871503e+02  -2.261186e+02  -6.256657e-01   2.721373e-01   7.310840e-01  -7.182608e-01  -5.666316e-01  -4.037697e-01  -3.043745e-01   7.777338e-01  -5.499875e-01  -1.186456e+05  -1.575553e+03   1.241193e+05  -7.030536e-02  -7.110304e-01  -6.996377e-01  -9.920299e-01   1.233582e-01  -2.567960e-02  -1.045650e-01  -6.922561e-01   7.140361e-01  -5.184614e-03   9.523353e-05   2.481533e-03   7.984477e-01  -5.873570e-01   1.322612e-01  -1.520840e-01   1.579092e-02   9.882414e-01  -5.825391e-01  -8.091739e-01  -7.671939e-02
   5.000000e-03   1.500000e-02   1.575983e-02   1.197247e+03   1.213411e+00   3.350953e-01   3.325464e-01   3.323584e-01   1.110799e-02   2.217206e-02  -2.011852e-03  -1.023780e+02  -8.496527e+01  -1.341870e+02  -9.418863e+00  -8.651965e+00  -1.331646e+00  -6.464909e+02   2.018602e+03  -3.158993e+03  -5.696072e+03  -2.092018e+04  -1.955103e+04  -6.467083e+02  -1.390186e+03  -4.267297e+04  -1.000192e+04   2.018906e+03  -1.832518e+03   8.313076e+02  -3.727083e+04  -3.160464e+03  -6.462615e+02  -1.390144e+03  -4.267293e+04  -1.000188e+04   2.019276e+03  -1.832513e+03   8.313457e+02  -3.727082e+04  -3.159879e+03  -5.661916e+02  -1.820585e+02  -2.404349e-02  -7.770646e+02   1.165848e+03   2.565934e-03   4.114964e+02  -6.679622e+02   1.616096e-02  -8.733809e-01  -4.851631e-01  -4.269114e-02  -4.411036e-01   7.508038e-01   4.916516e-01   2.064785e-01  -4.482303e-01   8.697449e-01   9.222321e+02   1.263052e+03   1.634390e-02  -4.931730e+02   2.320417e-02   6.347693e-03   5.468653e+05   9.192592e+05  -4.995771e-01  -5.388615e+05   9.134751e+00  -1.713051e+00   4.887080e+05   8.198926e+05  -2.905435e+00  -4.520071e+02  -1.415597e+03   3.925536e+01   6.944367e+01  -8.004961e+02  -6.235031e+02   1.248006e+03  -8.303109e-04   1.365258e-03  -4.222170e-03  -5.012611e-04   1.934244e-03  -5.713440e-03  -4.703579e-04   1.642814e-03  -5.468377e-03  -8.303109e-04   1.934244e-03  -5.468377e-03   4.319986e-04  -2.346264e-03  -2.035313e-03   9.332597e-04  -1.875906e-03  -3.678127e-03   1.898347e+02   5.771036e+04   5.771135e+04   5.771129e+04   1.712382e+03   1.712382e+03   9.478357e-03   7.348607e-03   5.986421e-03  -1.071768e+02   4.863207e+01  -1.366916e+02  -1.040390e+02  -8.079972e+01   2.644592e-01   7.350234e-02   9.615918e-01  -8.719629e-01  -4.077408e-01   2.709762e-01   4.119976e-01  -9.101345e-01  -4.373948e-02  -3.896028e+04  -1.227861e+03   3.840126e+04   1.634971e-01   6.853263e-01   7.096454e-01  -9.659951e-01  -3.483831e-02   2.562027e-01   2.003053e-01  -7.274023e-01   6.563259e-01  -6.791934e-03  -3.555376e-04   2.783027e-03  -3.466842e-01  -1.967471e-01  -9.171154e-01  -8.857776e-01   3.903131e-01   2.511048e-01  -3.085580e-01  -8.994144e-01   3.095895e-01
   1.500000e-02   5.000000e-03   5.253277e-03   1.713034e+03   5.469624e-01   3.321808e-01   3.199304e-01   3.478888e-01   4.593277e-03  -1.142268e-02   2.027662e-02  -2.889476e+02  -2.588112e+02  -3.696464e+02   1.824249e+01  -3.801959e+00  -4.824781e+01  -1.083997e+02  -2.888888e+02  -1.552473e+02  -7.282242e+02  -5.263016e+02  -5.565087e+02  -1.084154e+02   1.747731e+01  -7.870434e+02  -1.473626e+03  -2.888433e+02  -5.493829e+01  -2.652335e+02  -1.058009e+03  -1.552478e+02  -1.084361e+02   1.747862e+01  -7.870436e+02  -1.473625e+03  -2.888618e+02  -5.494175e+01  -2.652338e+02  -1.058012e+03  -1.552743e+02  -7.301147e+00  -1.216037e+02  -2.038496e-02  -1.149834e+03   4.503781e+02   1.728152e-03   1.262842e+03  -8.440899e+02   1.515190e-02  -2.039302e-01  -4.244206e-01  -8.822016e-01  -8.860422e-01  -3.032199e-01   3.506948e-01   4.163432e-01  -8.531851e-01   3.142189e-01   1.546066e+03   6.352124e+02   2.335071e-02  -7.256864e+02   8.934283e-03  -4.799590e-03   1.458470e+06   4.650573e+05  -4.996759e-01  -7.914622e+05   8.648100e+00  -4.766180e+00   6.411757e+05   1.255102e+06  -7.131863e+02  -1.122819e+02  -9.003700e+01   2.837092e+02   2.541948e+02  -1.010492e+02  -3.051684e+02   6.113368e+02   3.842630e-07   5.145419e-04   3.768698e-04  -8.873226e-07   7.748101e-05   5.613658e-05  -5.618885e-07   4.211719e-05  -6.160814e-06   3.842630e-07   7.748101e-05  -6.160814e-06   2.568273e-04   1.881540e-04   4.912689e-05   2.577146e-04   1.887159e-04   7.009693e-06   5.407981e+02   2.025891e+03   2.025673e+03   2.025680e+03   1.961392e+03   1.961392e+03   6.463373e-04   4.621608e-04   4.518399e-04  -3.058017e+02   1.336899e+02  -3.877779e+02  -2.951055e+02  -2.345218e+02   2.940261e-02  -3.537720e-01  -9.348694e-01  -9.466631e-01   2.903858e-01  -1.396609e-01   3.208809e-01   8.891127e-01  -3.263648e-01  -2.149699e+03   1.106680e+02   1.486496e+03   5.615534e-01   6.976899e-01   4.448445e-01   5.707921e-01   6.258730e-02  -8.187058e-01  -5.990444e-01   7.136607e-01  -3.630898e-01  -2.751990e-04  -2.363594e-05   3.705394e-04   7.544855e-01  -4.883497e-01  -4.384817e-01   8.074008e-02  -5.939571e-01   8.004349e-01   6.513315e-01   6.393195e-01   4.087026e-01
   1.500000e-02   5.000000e-03   1.575983e-02   1.115057e+03   1.376559e+00   3.330607e-01   3.589191e-01   3.080202e-01   7.185362e-03   4.723670e-03   3.254384e-03  -1.120575e+02  -1.199162e+02  -1.342625e+02  -1.569377e+00   8.839612e-01   1.564518e+01   6.882015e+01  -2.341169e+02   1.121207e+02   3.807610e+01  -1.511082e+02  -8.426606e+01   6.882128e+01   1.423572e+01  -1.560496e+02   6.192192e+01  -2.341153e+02  -9.768940e+01  -1.461696e+02  -7.084584e+01   1.121218e+02   6.881969e+01   1.423570e+01  -1.560496e+02   6.192190e+01  -2.341170e+02  -9.768918e+01  -1.461696e+02  -7.084562e+01   1.121199e+02  -1.124088e+03   1.271329e+03   1.067131e+01   5.422873e+02  -2.595692e+02  -1.056513e+01   1.155395e+03   5.020237e+02   3.860962e+00  -5.138163e-01   8.180650e-01  -2.583845e-01   3.000335e-01  -1.108100e-01  -9.474709e-01   8.037243e-01   5.643500e-01   1.885109e-01   1.668898e+03   1.352110e+03   7.980688e+00  -3.276203e+02  -5.549835e+00   1.207948e+01   1.446293e+06   9.678402e+05   1.197029e+02  -4.949053e+05  -6.631942e+03   9.123709e+03   8.047510e+05   1.024930e+06   4.994273e-01   4.927718e-01   4.997233e-01  -2.034312e-03   3.977088e-04   1.413404e-03   4.973074e-01   5.384595e-03   4.833411e-06   1.062715e-05  -8.004666e-06   1.154725e-05   5.437157e-06  -9.535442e-06  -1.571872e-06  -1.029665e-06   3.920310e-06   4.833411e-06   5.437157e-06   3.920310e-06   1.108720e-05  -4.788269e-06  -5.282554e-06  -4.600534e-07  -3.216397e-06  -4.252888e-06   2.132117e+02   3.693678e+02   3.693697e+02   3.693698e+02   2.197387e+03   2.197387e+03   2.175084e-05   2.039145e-05   7.568873e-06  -1.220787e+02   3.353132e+01  -1.443787e+02  -1.122764e+02  -1.095811e+02  -4.915737e-02  -5.403715e-01   8.399894e-01  -9.421228e-01  -2.541664e-01  -2.186415e-01  -3.316447e-01   8.021210e-01   4.966022e-01  -2.521703e+02  -5.729073e+01   2.562850e+02   1.253843e-01  -9.820837e-01  -1.406783e-01  -7.565302e-01  -2.912307e-03  -6.539522e-01   6.418261e-01   1.884227e-01  -7.433412e-01  -5.964420e-06   6.670487e-07   1.948825e-05  -7.087882e-01   7.046384e-01   3.322514e-02  -3.150315e-01  -2.740418e-01  -9.086563e-01   6.311691e-01   6.545118e-01  -4.162209e-01
   1.500000e-02   1.500000e-02   5.253277e-03   1.596827e+03   6.595414e-01   3.126302e-01   3.300670e-01   3.573028e-01  -2.124312e-03   1.055270e-02   2.152372e-02  -3.140035e+02  -3.485457e+02  -3.550753e+02  -4.053672e+01   1.809555e+01   2.106242e+01  -1.565721e+01   1.629752e+01  -7.305735e+01   5.128953e+00   3.521535e+01  -4.893221e+01  -2.406194e+01   7.347109e+01   4.456881e+01   7.109549e+01   3.460420e+00  -6.797694e+01   5.643834e+01  -7.017815e+01  -8.699793e+01   3.556422e-01   7.662335e+01   4.316175e+01   7.424768e+01   3.056409e+01  -6.961465e+01   5.503111e+01  -7.181615e+01  -5.938651e+01   5.934638e+02  -2.647618e+02   4.549000e-03  -1.214451e+03   1.020833e+03  -4.785842e-03  -8.184074e+02   7.704863e+02   9.148886e-03   8.189838e-01   5.115708e-01  -2.599247e-01  -5.468199e-01   5.584855e-01  -6.237643e-01  -1.739354e-01   6.529849e-01   7.371277e-01   1.292473e+03   9.377920e+02   8.546737e-03  -9.090624e+02   4.751236e-03   5.628396e-03   1.248440e+06   8.529236e+05  -4.999364e-01  -1.013725e+06   5.121618e-01   4.795716e-01   7.004545e+05   1.383100e+06  -4.621003e+02  -2.662903e+03  -3.718780e+03  -1.109996e+03   1.311693e+03   3.147370e+03  -2.281261e+03   4.563522e+03  -1.163276e-02  -3.844981e-03   2.176106e-02   2.239807e-01  -4.792582e-02  -5.727490e-02   2.136792e-02   5.696781e-03  -1.820357e-02  -1.163276e-02  -4.792582e-02  -1.820357e-02   1.100679e-01   2.156449e-02  -2.578906e-02  -1.139129e-01   1.965675e-04  -3.148584e-02   5.924435e+02   1.150886e+02   1.825641e+02   1.753283e+02   2.050056e+03   2.050056e+03   2.391416e-01   1.710370e-01   1.671379e-01  -3.392082e+02   9.329786e+01  -3.945977e+02  -3.360184e+02  -2.870084e+02  -4.673184e-01  -6.733772e-01   5.728670e-01   2.671970e-01   5.100972e-01   8.175614e-01  -8.427451e-01   5.351298e-01  -5.845349e-02  -1.116371e+02  -3.198460e+00   4.241850e+01   3.815819e-01  -3.468315e-01  -8.567982e-01   8.839608e-01   4.078853e-01   2.285672e-01  -2.702011e-01   8.445931e-01  -4.622271e-01  -1.499129e-01  -9.624362e-03   8.177506e-02  -6.267456e-01   7.389395e-01   2.473022e-01  -1.619930e-01   1.868778e-01  -9.689350e-01  -7.621996e-01  -6.473370e-01   2.578224e-03
   1.500000e-02   1.500000e-02   1.575983e-02   1.193231e+03   1.220861e+00   3.295686e-01   3.120910e-01   3.583403e-01  -1.015326e-02  -9.363602e-03  -6.333274e-03  -7.721480e+01  -7.577967e+01  -1.000159e+02   2.584854e-01   1.190277e+01   3.685411e+00   9.443058e+00   1.699169e+02  -2.486905e+01   6.764159e+01   9.626290e+01  -5.739914e+01   9.442753e+00   6.840570e+01   1.194572e+02   6.687689e+01   1.699170e+02  -3.317730e+01   7.306974e+01  -8.162121e+01  -2.486816e+01   9.442462e+00   6.840570e+01   1.194573e+02   6.687689e+01   1.699167e+02  -3.317729e+01   7.306978e+01  -8.162120e+01  -2.486853e+01  -6.868621e+02   6.663995e+02  -2.046773e-02  -8.595590e+02   5.223404e+02  -1.319021e-02   4.212948e+02  -3.533668e+02   1.196912e-02  -9.087323e-02   9.288249e-01   3.592024e-01  -9.737722e-01  -1.584258e-01   1.633064e-01   2.085900e-01  -3.349411e-01   9.188605e-01   9.873099e+02   6.545733e+02   1.491851e-03  -6.429072e+02   1.720087e-02  -2.093022e-02   6.940548e+05   4.208975e+05  -4.996319e-01  -5.277893e+05   1.521940e+01  -1.237948e+01   3.716506e+05   7.310346e+05  -2.902854e+04  -5.997224e+03  -1.899112e+05  -1.319501e+04  -7.424928e+04  -3.374964e+04  -7.497899e+04   1.499590e+05  -1.125578e-06  -5.718356e-06   5.622804e-06   1.976576e-06   3.955099e-07  -2.521024e-07   4.827199e-07  -6.733614e-07   4.498602e-06  -1.125578e-06   3.955099e-07   4.498602e-06  -1.870890e-06   3.052762e-06  -4.627319e-07  -3.847466e-06   2.570042e-06   2.106295e-07   1.483863e+02   2.571052e+02   2.571054e+02   2.571053e+02   1.493287e+03   1.493287e+03   9.520143e-06   6.908559e-06   6.550187e-06  -8.433677e+01   3.194799e+01  -1.054627e+02  -7.611855e+01  -7.142912e+01  -3.850799e-01  -1.104279e-01   9.162528e-01  -3.969636e-01   9.160983e-01  -5.642536e-02  -8.331467e-01  -3.854473e-01  -3.966069e-01  -1.210310e+02   6.732637e+01   2.081955e+02   5.862938e-01  -3.409217e-01  -7.348687e-01   7.794502e-01  -9.756697e-03   6.263882e-01   2.207192e-01   9.400411e-01  -2.600112e-01  -3.151710e-06   8.285795e-07   6.091664e-06  -8.554426e-01  -4.098861e-01   3.165617e-01  -2.934135e-01   8.872543e-01   3.559331e-01   4.267627e-01  -2.115969e-01   8.792612e-01
