     VARIABLES=
              x              y              z      nomin_den    nomin_voidr      fabric_xx      fabric_yy      fabric_zz      fabric_xy      fabric_xz      fabric_yz       sigma_xx       sigma_yy       sigma_zz       sigma_xy       sigma_xz       sigma_yz    sigmaDot_xx    sigmaDot_yy    sigmaDot_zz    sigmaDot_xy    sigmaDot_xz    sigmaDot_yz       Oldro_xx       Oldro_xy       Oldro_xz       Oldro_yx       Oldro_yy       Oldro_yz       Oldro_zx       Oldro_zy       Oldro_zz       Trues_xx       Trues_xy       Trues_xz       Trues_yx       Trues_yy       Trues_yz       Trues_zx       Trues_zy       Trues_zz           F_xX           F_xY           F_xZ           F_yX           F_yY           F_yZ           F_zX           F_zY           F_zZ           R_xX           R_xY           R_xZ           R_yX           R_yY           R_yZ           R_zX           R_zY           R_zZ           U_xX           U_yY           U_zZ           U_xY           U_xZ           U_yZ       Green_xx       Green_yy       Green_zz       Green_xy       Green_xz       Green_yz      Green_vol      Green_shr       Euler_xx       Euler_yy       Euler_zz       Euler_xy       Euler_xz       Euler_yz      Euler_vol      Euler_shr           l_xx           l_xy           l_xz           l_yx           l_yy           l_yz           l_zx           l_zy           l_zz           d_xx           d_yy           d_zz           d_xy           d_xz           d_yz           w_xy           w_xz           w_yz     norm_sigma  norm_sigmaDot     norm_Oldro     norm_Trues         norm_F         norm_U         norm_l         norm_d         norm_w              p              q        sigma_1        sigma_2        sigma_3     sigma_1_v1     sigma_1_v2     sigma_1_v3     sigma_2_v1     sigma_2_v2     sigma_2_v3     sigma_3_v1     sigma_3_v2     sigma_3_v3     sigmaDot_1     sigmaDot_2     sigmaDot_3  sigmaDot_1_v1  sigmaDot_1_v2  sigmaDot_1_v3  sigmaDot_2_v1  sigmaDot_2_v2  sigmaDot_2_v3  sigmaDot_3_v1  sigmaDot_3_v2  sigmaDot_3_v3            d_1            d_2            d_3         d_1_v1         d_1_v2         d_1_v3         d_2_v1         d_2_v2         d_2_v3         d_3_v1         d_3_v2         d_3_v3
ZONE I=2, J=2, K=2, DATAPACKING=POINT, STRANDID=5, SOLUTIONTIME=70
   5.000000e-03   5.000000e-03   5.253276e-03   1.575477e+03   6.820305e-01   3.406992e-01   3.072232e-01   3.520776e-01   6.663797e-03  -4.629020e-04   5.776220e-04  -3.167493e+02  -2.446164e+02  -3.730233e+02  -2.426646e+01   2.413007e+01  -2.612308e+01  -6.765361e+00   8.376922e+00   1.830075e+01  -4.740056e+00   9.539824e+00  -4.928277e+00   4.165900e+00   6.515782e-01   1.029472e+01   2.064136e+00   1.019875e+01  -6.873467e+00   7.449533e+00  -4.166669e+00   1.831145e+01  -1.928021e+00   1.847184e-01   1.075896e+01   1.597274e+00   5.492588e+00  -7.376045e+00   7.913770e+00  -4.669251e+00   1.113487e+01   5.030963e+02  -8.534396e+02  -2.702800e-03  -3.344223e+02  -1.004976e+03   2.814621e-03  -8.447780e+01   1.685506e+02   1.988406e-02   7.723999e-01  -6.103286e-01   1.757765e-01  -6.221166e-01  -7.827650e-01   1.580971e-02  -1.279426e-01   1.215649e-01   9.843031e-01   6.074495e+02   1.328028e+03   1.914135e-02  -5.554949e+01  -6.382683e-03   1.863614e-03   1.860398e+05   8.833718e+05  -4.997947e-01  -5.375740e+04  -1.990401e+00   1.414761e+00   3.564704e+05   5.413088e+05  -4.166889e+01   1.591507e-01  -1.321661e+03  -3.791200e+00  -2.361230e+02  -2.122867e+01  -4.543902e+02   9.097805e+02   1.701876e-02   2.360173e-03  -7.325934e-04   1.596353e-02   2.213584e-03  -6.868971e-04  -1.413236e-04  -2.015115e-05   6.599106e-06   1.701876e-02   2.213584e-03   6.599106e-06   9.161853e-03  -4.369585e-04  -3.535241e-04  -6.801681e-03  -2.956349e-04  -3.333730e-04   5.504732e+02   2.711269e+01   2.621919e+01   2.037271e+01   1.462472e+03   1.462472e+03   2.357906e-02   2.151857e-02   9.639647e-03  -3.114630e+02   1.341259e+02  -3.840031e+02  -3.204704e+02  -2.299156e+02  -2.943192e-01   1.263036e-01   9.473245e-01  -9.008383e-01  -3.676913e-01  -2.308536e-01   3.191653e-01  -9.213308e-01   2.219977e-01  -9.634964e+00   7.310792e+00   2.223649e+01   9.528877e-01   1.625762e-01  -2.560742e-01   6.482955e-02  -9.338798e-01  -3.516611e-01  -2.963143e-01   3.184924e-01  -9.004224e-01  -2.170421e-03   5.250788e-07   2.140884e-02   4.289581e-01  -9.013119e-01  -6.026521e-02   4.898848e-02  -4.340561e-02   9.978557e-01   9.019951e-01   4.309906e-01  -2.553471e-02
   5.000000e-03   5.000000e-03   1.575983e-02   1.087368e+03   1.437076e+00   3.546013e-01   3.200316e-01   3.253672e-01  -9.976436e-03   2.483709e-02   3.457356e-03  -6.659491e+01  -7.674783e+01  -1.060678e+02   8.000668e+00   9.491040e-01   1.479511e+00   2.980268e+01   9.393054e+00  -4.168209e+00  -1.390036e+01  -3.159538e+01  -7.003886e-01   2.980283e+01  -1.320737e+01  -3.121059e+01  -1.459341e+01   9.393060e+00   1.301614e+00  -3.198020e+01  -2.702367e+00  -4.168187e+00   2.980275e+01  -1.320736e+01  -3.121059e+01  -1.459340e+01   9.392964e+00   1.301616e+00  -3.198020e+01  -2.702365e+00  -4.168320e+00   4.045324e+02  -1.217120e+03   1.976895e-02  -1.073970e+03   1.174091e+03  -1.298039e-03  -1.136228e+02  -8.644495e+02   2.675489e-02   6.245659e-03  -6.724523e-01  -7.401141e-01  -8.660895e-01   3.663228e-01  -3.401420e-01  -4.998499e-01  -6.431294e-01   5.801160e-01   9.894754e+02   1.804504e+03   1.331180e-03  -5.923744e+02  -1.212574e-02  -3.097603e-02   6.649840e+05   1.803571e+06  -4.994458e-01  -8.275410e+05   3.175635e+00  -2.435672e+01   8.228515e+05   1.422080e+06  -1.548284e+05  -3.270283e+04  -9.510757e+04  -7.115772e+04   1.213486e+05   5.577052e+04  -9.421293e+04   1.884269e+05   1.114671e-06  -2.089093e-07  -5.683675e-07  -1.132993e-07   3.046928e-08   2.249086e-07   6.232623e-07  -8.702877e-08   1.083595e-07   1.114671e-06   3.046928e-08   1.083595e-07  -1.611043e-07   2.744737e-08   6.893992e-08  -4.780498e-08  -5.958149e-07   1.559687e-07   1.473421e+02   5.819821e+01   5.819833e+01   5.819827e+01   2.221961e+03   2.221961e+03   1.442670e-06   1.148078e-06   8.736211e-07  -8.313685e+01   3.823252e+01  -1.061503e+02  -8.111851e+01  -6.214178e+01   1.460460e-02   4.628697e-02  -9.988214e-01  -4.839088e-01   8.744790e-01   3.344911e-02   8.749966e-01   4.828499e-01   3.517009e-02  -2.623947e+01   9.250405e+00   5.201659e+01   5.296633e-01   2.777075e-01   8.014583e-01   7.792783e-02   9.249557e-01  -3.720002e-01   8.446207e-01  -2.594907e-01  -4.682739e-01  -3.053462e-08   1.456411e-07   1.138393e-06   1.344083e-01   8.767703e-01  -4.617448e-01  -5.122411e-02  -4.592025e-01  -8.868535e-01   9.896012e-01  -1.428530e-01   1.680885e-02
   5.000000e-03   1.500000e-02   5.253276e-03   1.524977e+03   7.377309e-01   3.310380e-01   3.223769e-01   3.465851e-01  -4.756092e-04   1.680651e-03   1.541351e-02  -2.983298e+02  -2.536621e+02  -2.910217e+02  -7.127742e+00   2.963740e+01  -3.485530e+01   1.588451e-01  -1.062443e+00  -2.783808e+00   4.719264e+00  -1.975998e-01  -1.478071e-01  -1.944423e+00   8.279890e+00   8.742730e-01   7.986636e+00  -1.083935e+00  -7.064422e-01   1.008054e+00  -1.573504e-01  -2.850659e+00  -8.497128e-01   8.306044e+00   7.655195e-01   8.012791e+00  -1.531309e-01  -5.785416e-01   8.993003e-01  -2.945040e-02  -1.782765e+00  -4.847334e+02   4.784991e+01  -1.251343e+00  -3.692914e+02   1.877747e+02  -1.065401e+00  -5.606765e+02  -5.994216e+02  -5.651654e-01  -6.529613e-01   2.638508e-01  -7.099467e-01  -5.567732e-01   4.682517e-01   6.861078e-01  -5.134639e-01  -8.432811e-01   1.588452e-01   8.100108e+02   6.060320e+02   6.763354e-02   1.719893e+02   1.700457e+00  -3.524504e-01   3.428499e+05   1.984271e+05   1.010176e+00   1.217718e+05   6.584431e+02   3.942021e+01   1.804260e+05   2.434698e+05  -6.232138e+01  -5.881231e+01  -2.667852e+00   6.104163e+01   1.410705e+01  -1.370739e+01  -4.126718e+01   8.353436e+01  -3.176559e-03   3.835060e-04   3.600365e-03   1.080065e-02  -3.719833e-04   1.901513e-04  -6.727553e-05  -6.560979e-06  -1.209214e-04  -3.176559e-03  -3.719833e-04  -1.209214e-04   5.592078e-03   1.766545e-03   9.179516e-05  -5.208572e-03   1.833820e-03   9.835614e-05   4.922671e+02   7.332870e+00   1.215439e+01   1.178343e+01   1.040461e+03   1.040461e+03   1.183419e-02   8.890692e-03   7.810479e-03  -2.810045e+02   9.030155e+01  -3.296725e+02  -2.873575e+02  -2.259835e+02  -6.266523e-01   2.755124e-01   7.289717e-01  -7.178696e-01  -5.681028e-01  -4.023960e-01  -3.032658e-01   7.754690e-01  -5.537849e-01  -5.079373e+00  -2.769496e+00   4.161463e+00   6.566944e-01  -7.500286e-01   7.880140e-02  -5.029235e-02   6.070365e-02   9.968880e-01   7.524780e-01   6.586139e-01  -2.143048e-03  -7.776291e-03  -1.983300e-04   4.305157e-03   7.867873e-01  -5.920556e-01  -1.744589e-01  -2.531395e-02  -3.133653e-01   9.492952e-01  -6.167049e-01  -7.424772e-01  -2.615391e-01
   5.000000e-03   1.500000e-02   1.575983e-02   1.197247e+03   1.213411e+00   3.401093e-01   3.266007e-01   3.332899e-01   1.705451e-02   1.985701e-02   1.344714e-03  -1.011482e+02  -8.798246e+01  -1.335839e+02  -1.034085e+01  -9.126746e+00  -1.370654e+00   4.400455e-01  -6.245026e-01   4.189244e+00   7.227898e+00   4.805236e+00  -2.936039e+00   4.400574e-01   7.983692e+00   4.907211e+00   6.472131e+00  -6.245148e-01  -2.879951e+00   4.703319e+00  -2.992126e+00   4.189283e+00   4.400473e-01   7.983691e+00   4.907210e+00   6.472129e+00  -6.245237e-01  -2.879951e+00   4.703318e+00  -2.992126e+00   4.189270e+00  -5.270112e+02  -1.386279e+02  -2.390665e-02  -8.113175e+02   1.138988e+03   2.597453e-03   4.252643e+02  -6.554309e+02   1.620540e-02  -8.664255e-01  -4.959519e-01  -5.778033e-02  -4.568286e-01   7.406825e-01   4.926430e-01   2.015303e-01  -4.532341e-01   8.683112e-01   9.129526e+02   1.209445e+03   1.673228e-02  -5.323008e+02   2.279262e-02   6.435595e-03   5.584128e+05   8.730500e+05  -4.995796e-01  -5.648769e+05   8.691647e+00  -2.174463e+00   4.771541e+05   8.283256e+05  -5.454100e+00  -4.329888e+02  -1.346181e+03   5.080389e+01   8.954479e+01  -7.640492e+02  -5.948746e+02   1.190749e+03   3.059653e-08   1.469827e-07   1.514893e-07   9.853359e-09  -7.027550e-08  -9.104970e-09   6.471410e-08   1.012390e-08   1.401248e-07   3.059653e-08  -7.027550e-08   1.401248e-07   7.841803e-08   1.081017e-07   5.094671e-10   6.856468e-08   4.338761e-08  -9.614437e-09   1.902649e+02   1.368244e+01   1.368249e+01   1.368248e+01   1.692019e+03   1.692019e+03   2.730075e-07   2.473480e-07   1.155512e-07  -1.075715e+02   4.720964e+01  -1.363148e+02  -1.043031e+02  -8.209657e+01   2.738019e-01   8.575399e-02   9.579555e-01  -8.215181e-01  -4.970889e-01   2.793038e-01   5.001405e-01  -8.634517e-01  -6.565543e-02  -8.837404e+00   5.098813e+00   7.743379e+00  -6.513477e-01   6.536669e-01   3.853126e-01   3.188574e-01   6.965884e-01  -6.427243e-01  -6.885319e-01  -2.957772e-01  -6.621478e-01  -1.250806e-07   1.250160e-08   2.130248e-07  -5.589726e-01   7.977041e-01   2.263133e-01  -6.188165e-01  -5.829890e-01   5.264883e-01   5.519201e-01   1.542462e-01   8.195074e-01
   1.500000e-02   5.000000e-03   5.253276e-03   1.713035e+03   5.469623e-01   3.322130e-01   3.198917e-01   3.478953e-01   4.588308e-03  -1.145369e-02   2.026000e-02  -2.896028e+02  -2.594354e+02  -3.707794e+02   1.831758e+01  -3.921058e+00  -4.824600e+01   4.286010e+01   7.796709e+00  -7.344417e+01   6.316827e+01  -7.564059e+01  -5.604408e+01   4.287579e+01   6.852908e+01  -9.752417e+00   5.751411e+01   7.751281e+00   1.432694e+02  -1.418657e+02  -2.553960e+02  -7.344486e+01   4.289894e+01   6.852761e+01  -9.752103e+00   5.751265e+01   7.772013e+00   1.432733e+02  -1.418654e+02  -2.553921e+02  -7.341523e+01  -7.197041e+00  -1.217070e+02  -2.038581e-02  -1.149868e+03   4.504155e+02   1.727931e-03   1.262956e+03  -8.442065e+02   1.515203e-02  -2.039281e-01  -4.245347e-01  -8.821472e-01  -8.860277e-01  -3.032060e-01   3.507436e-01   4.163752e-01  -8.531333e-01   3.143172e-01   1.546146e+03   6.353208e+02   2.335189e-02  -7.257677e+02   8.935176e-03  -4.796143e-03   1.458653e+06   4.651852e+05  -4.996759e-01  -7.916192e+05   8.648091e+00  -4.766032e+00   6.412792e+05   1.255301e+06  -7.130264e+02  -1.123019e+02  -9.008453e+01   2.837026e+02   2.542331e+02  -1.010847e+02  -3.051376e+02   6.112752e+02   8.096640e-07  -4.988452e-04  -3.882949e-04   1.165252e-06  -7.614658e-05  -6.087913e-05   3.588291e-07   2.802094e-05  -4.574843e-06   8.096640e-07  -7.614658e-05  -4.574843e-06  -2.488400e-04  -1.939680e-04  -1.642910e-05  -2.500052e-04  -1.943269e-04  -4.445003e-05   5.422278e+02   3.482123e+02   3.482397e+02   3.482349e+02   1.961550e+03   1.961550e+03   6.402595e-04   4.532655e-04   4.521976e-04  -3.066059e+02   1.340951e+02  -3.888465e+02  -2.958365e+02  -2.351345e+02   2.818009e-02  -3.526241e-01  -9.353406e-01  -9.462003e-01   2.923389e-01  -1.387192e-01   3.223522e-01   8.889287e-01  -3.254149e-01  -3.071035e+02  -1.564215e+01   2.999582e+02  -2.173950e-01  -5.904934e-01  -7.772110e-01  -8.507206e-01   5.050119e-01  -1.457310e-01   4.785540e-01   6.295082e-01  -6.121319e-01  -3.508833e-04  -1.554015e-05   2.865117e-04   6.662297e-01   6.275254e-01   4.029267e-01  -9.605065e-02   6.080054e-01  -7.881013e-01  -7.395352e-01   4.863551e-01   4.653454e-01
   1.500000e-02   5.000000e-03   1.575983e-02   1.115058e+03   1.376559e+00   3.330019e-01   3.613500e-01   3.056481e-01   1.096332e-02   3.956541e-03   2.199406e-03  -1.116717e+02  -1.194911e+02  -1.341602e+02  -2.278715e+00   1.368260e+00   1.543696e+01  -3.660500e+01   5.971379e+00  -9.019877e+00  -3.142958e+01  -3.456803e+01   1.735091e+01  -3.660501e+01  -2.510109e+01  -2.411975e+01  -3.775845e+01   5.971473e+00   2.511037e+01  -4.501709e+01   9.591922e+00  -9.019630e+00  -3.660518e+01  -2.510110e+01  -2.411975e+01  -3.775846e+01   5.971293e+00   2.511039e+01  -4.501708e+01   9.591946e+00  -9.019832e+00  -1.124084e+03   1.271325e+03   1.067151e+01   5.422836e+02  -2.595662e+02  -1.056539e+01   1.155394e+03   5.020250e+02   3.861074e+00  -5.138168e-01   8.180651e-01  -2.583830e-01   3.000325e-01  -1.108088e-01  -9.474713e-01   8.037243e-01   5.643500e-01   1.885107e-01   1.668894e+03   1.352107e+03   7.980925e+00  -3.276169e+02  -5.549921e+00   1.207972e+01   1.446285e+06   9.678354e+05   1.197082e+02  -4.948990e+05  -6.632022e+03   9.123866e+03   8.047466e+05   1.024922e+06   4.994273e-01   4.927722e-01   4.997233e-01  -2.034182e-03   3.976826e-04   1.413319e-03   4.973076e-01   5.384276e-03  -5.999823e-08  -2.714804e-06  -4.341589e-06   5.789956e-07   4.805048e-07   7.501942e-07   1.372583e-06   1.289951e-06   1.083217e-06  -5.999823e-08   4.805048e-07   1.083217e-06  -1.067904e-06  -1.484503e-06   1.020072e-06  -1.646900e-06  -2.857086e-06  -2.698783e-07   2.126932e+02   8.272514e+01   8.272569e+01   8.272579e+01   2.197381e+03   2.197381e+03   5.663338e-06   3.190185e-06   4.679328e-06  -1.217743e+02   3.357241e+01  -1.440904e+02  -1.120989e+02  -1.091337e+02  -7.313675e-02  -5.349670e-01   8.417014e-01  -8.904236e-01  -3.451149e-01  -2.967178e-01  -4.492180e-01   7.711718e-01   4.511067e-01  -7.799290e+01  -1.021971e+01   4.855911e+01   8.151661e-01   3.107347e-01   4.888233e-01   1.349742e-01   7.187872e-01  -6.820022e-01  -5.632816e-01   6.219236e-01   5.439897e-01  -1.169899e-06  -2.809782e-07   2.954601e-06   8.546502e-01   2.846104e-01   4.342464e-01   2.456952e-02   8.132626e-01  -5.813780e-01   5.186225e-01  -5.075440e-01  -6.880623e-01
   1.500000e-02   1.500000e-02   5.253276e-03   1.596827e+03   6.595413e-01   3.123561e-01   3.305547e-01   3.570892e-01  -2.807317e-03   9.986589e-03   2.250977e-02  -3.142420e+02  -3.491599e+02  -3.554716e+02  -4.056641e+01   1.808218e+01   2.114339e+01   1.891303e+01   2.384496e+01   1.796532e+01   4.388590e-01   1.441331e+00  -3.619477e-01   2.389798e+01   1.921746e+01  -9.462169e+00   2.037399e+01   5.199305e+01  -5.192709e+01  -8.594227e+00  -5.168510e+01   3.158196e+01   7.618483e+00   1.711606e+01  -8.525431e+00   1.827226e+01   3.390461e+01  -5.083152e+01  -7.657449e+00  -5.058998e+01   1.316654e+01   6.106287e+02  -2.818242e+02   4.724101e-03  -1.121680e+03   9.279857e+02  -3.906720e-03  -7.774493e+02   7.295060e+02   9.499933e-03   8.297698e-01   4.853238e-01  -2.755774e-01  -5.340941e-01   5.472403e-01  -6.444157e-01  -1.619432e-01   6.819009e-01   7.132921e-01   1.231667e+03   8.685060e+02   7.991923e-03  -8.476194e+02   4.468023e-03   6.632818e-03   1.117730e+06   7.363801e+05  -4.999361e-01  -8.900736e+05  -5.947714e-02   9.867560e-01   6.180366e+05   1.219325e+06  -5.942304e+02  -3.250732e+03  -3.982607e+03  -1.390542e+03   1.539115e+03   3.598612e+03  -2.609190e+03   5.219380e+03   5.218427e-03   9.955951e-03  -2.481711e-02   3.684476e-02   2.787166e-02  -1.346859e-01  -2.526030e-03  -5.193641e-03   1.871551e-02   5.218427e-03   2.787166e-02   1.871551e-02   2.340035e-02  -1.367157e-02  -6.993978e-02  -1.344440e-02  -1.114554e-02  -6.474614e-02   5.931779e+02   3.542476e+01   1.028950e+02   8.533619e+01   1.925675e+03   1.925675e+03   1.462892e-01   1.113843e-01   9.483710e-02  -3.396245e+02   9.348098e+01  -3.951299e+02  -3.364130e+02  -2.873307e+02  -4.662899e-01  -6.746434e-01   5.722149e-01   2.660032e-01   5.099762e-01   8.180260e-01  -8.436919e-01   5.336483e-01  -5.833941e-02   1.641423e+01   2.025968e+01   2.404941e+01   6.249610e-01  -1.106018e-01  -7.727813e-01   7.539536e-01  -1.711763e-01   6.342339e-01   2.024292e-01   9.790127e-01   2.358986e-02  -4.755352e-02  -1.354744e-03   1.007139e-01   1.248556e-01  -6.951704e-01  -7.079189e-01  -9.554871e-01   1.079859e-01  -2.745604e-01   2.673116e-01   7.106878e-01  -6.507438e-01
   1.500000e-02   1.500000e-02   1.575983e-02   1.193231e+03   1.220861e+00   3.295687e-01   3.120910e-01   3.583403e-01  -1.015339e-02  -9.363664e-03  -6.333301e-03  -7.722777e+01  -7.536353e+01  -1.002289e+02   5.016104e-01   1.205461e+01   4.098615e+00  -1.654391e+00  -2.198528e+00   5.478301e+00   5.015408e-01   1.737208e+00  -2.013722e-02  -1.654394e+00   3.024256e-01   7.611205e-01   7.006919e-01  -2.198536e+00  -1.527614e-01   2.713322e+00   1.124101e-01   5.478334e+00  -1.654402e+00   3.024256e-01   7.611216e-01   7.006920e-01  -2.198543e+00  -1.527610e-01   2.713323e+00   1.124104e-01   5.478325e+00  -6.868624e+02   6.663999e+02  -2.046772e-02  -8.595599e+02   5.223412e+02  -1.319020e-02   4.212961e+02  -3.533681e+02   1.196912e-02  -9.087298e-02   9.288243e-01   3.592039e-01  -9.737723e-01  -1.584258e-01   1.633060e-01   2.085898e-01  -3.349427e-01   9.188600e-01   9.873109e+02   6.545742e+02   1.491818e-03  -6.429081e+02   1.720085e-02  -2.093021e-02   6.940563e+05   4.208986e+05  -4.996319e-01  -5.277906e+05   1.521941e+01  -1.237949e+01   3.716515e+05   7.310363e+05  -2.903035e+04  -5.997521e+03  -1.899212e+05  -1.319575e+04  -7.425356e+04  -3.375137e+04  -7.498304e+04   1.499671e+05  -1.421712e-08   1.099250e-07   3.920568e-08   1.042735e-07  -6.115553e-08  -1.462124e-07   1.489367e-07  -2.922089e-07   1.701403e-07  -1.421712e-08  -6.115553e-08   1.701403e-07   1.070992e-07   9.407121e-08  -2.192107e-07   2.825723e-09  -5.486553e-08   7.299826e-08   1.483723e+02   6.792791e+00   6.792831e+00   6.792828e+00   1.493289e+03   1.493289e+03   4.316592e-07   4.118686e-07   1.292049e-07  -8.427339e+01   3.259596e+01  -1.058094e+02  -7.601831e+01  -7.099243e+01  -3.842003e-01  -1.169562e-01   9.158119e-01  -4.669831e-01   8.803165e-01  -8.348497e-02  -7.964402e-01  -4.597436e-01  -3.928344e-01  -3.042845e+00  -1.737649e+00   6.405876e+00  -7.631247e-01   6.019900e-01   2.350505e-01   5.604283e-01   7.975716e-01  -2.231585e-01   3.218088e-01   3.856879e-02   9.460188e-01  -2.704904e-07   6.063724e-08   3.046208e-07   4.816915e-01  -7.392551e-01  -4.706116e-01   8.717076e-01   4.593413e-01   1.706795e-01  -8.999566e-02   4.924505e-01  -8.656750e-01
