     VARIABLES=
              x              y              z      nomin_den    nomin_voidr      fabric_xx      fabric_yy      fabric_zz      fabric_xy      fabric_xz      fabric_yz       sigma_xx       sigma_yy       sigma_zz       sigma_xy       sigma_xz       sigma_yz    sigmaDot_xx    sigmaDot_yy    sigmaDot_zz    sigmaDot_xy    sigmaDot_xz    sigmaDot_yz       Oldro_xx       Oldro_xy       Oldro_xz       Oldro_yx       Oldro_yy       Oldro_yz       Oldro_zx       Oldro_zy       Oldro_zz       Trues_xx       Trues_xy       Trues_xz       Trues_yx       Trues_yy       Trues_yz       Trues_zx       Trues_zy       Trues_zz           F_xX           F_xY           F_xZ           F_yX           F_yY           F_yZ           F_zX           F_zY           F_zZ           R_xX           R_xY           R_xZ           R_yX           R_yY           R_yZ           R_zX           R_zY           R_zZ           U_xX           U_yY           U_zZ           U_xY           U_xZ           U_yZ       Green_xx       Green_yy       Green_zz       Green_xy       Green_xz       Green_yz      Green_vol      Green_shr       Euler_xx       Euler_yy       Euler_zz       Euler_xy       Euler_xz       Euler_yz      Euler_vol      Euler_shr           l_xx           l_xy           l_xz           l_yx           l_yy           l_yz           l_zx           l_zy           l_zz           d_xx           d_yy           d_zz           d_xy           d_xz           d_yz           w_xy           w_xz           w_yz     norm_sigma  norm_sigmaDot     norm_Oldro     norm_Trues         norm_F         norm_U         norm_l         norm_d         norm_w              p              q        sigma_1        sigma_2        sigma_3     sigma_1_v1     sigma_1_v2     sigma_1_v3     sigma_2_v1     sigma_2_v2     sigma_2_v3     sigma_3_v1     sigma_3_v2     sigma_3_v3     sigmaDot_1     sigmaDot_2     sigmaDot_3  sigmaDot_1_v1  sigmaDot_1_v2  sigmaDot_1_v3  sigmaDot_2_v1  sigmaDot_2_v2  sigmaDot_2_v3  sigmaDot_3_v1  sigmaDot_3_v2  sigmaDot_3_v3            d_1            d_2            d_3         d_1_v1         d_1_v2         d_1_v3         d_2_v1         d_2_v2         d_2_v3         d_3_v1         d_3_v2         d_3_v3
ZONE I=2, J=2, K=2, DATAPACKING=POINT, STRANDID=5, SOLUTIONTIME=1
   5.000000e-03   5.000000e-03   1.466531e-01   1.217950e+02   2.075788e+01   2.867606e-01   2.024489e-01   5.107905e-01   6.047421e-02  -6.044754e-02  -5.076114e-02  -9.131765e+01  -5.056876e+00  -6.630732e+01  -4.122333e+01  -1.952118e+01   1.149101e+01  -1.126835e+07  -3.596223e+05  -6.073223e+06   1.225692e+05  -2.086108e+06   6.066879e+06  -1.125899e+07  -2.409855e+06  -5.846473e+06   2.656765e+06  -3.615622e+05   3.612050e+06   1.658652e+06   8.512770e+06  -6.077316e+06  -1.126574e+07  -2.414878e+06  -5.848008e+06   2.655700e+06  -3.619357e+05   3.611810e+06   1.657304e+06   8.514708e+06  -6.082213e+06   7.612445e-01   8.890633e+00   5.478666e-03   4.368614e+01  -2.892431e+01   3.588802e-03  -5.156880e+02   3.086424e+02   9.569801e-01   4.880021e-01   8.263404e-01   2.810969e-01  -6.791592e-02  -2.851228e-01   9.560818e-01  -8.701961e-01   4.856609e-01   8.301888e-02   4.461542e+02   1.654892e+02   8.441864e-02  -2.622764e+02  -8.303305e-01   4.682718e-01   1.339211e+05   4.808740e+04  -4.207312e-02  -8.021001e+04  -2.466711e+02   1.476548e+02   6.066948e+04   1.213050e+05  -5.382953e+00  -6.600641e+01   1.776034e-02  -1.976707e+01  -1.683171e+00  -5.663207e+00  -2.379053e+01   4.857392e+01   7.410747e+01  -5.053235e+01  -2.074043e-01  -2.453058e+01   7.916823e+00  -1.080448e-01  -9.329734e+01  -2.757877e+01  -8.172760e+00   7.410747e+01   7.916823e+00  -8.172760e+00  -3.753146e+01  -4.675237e+01  -1.384341e+01  -1.300089e+01   4.654497e+01   1.373536e+01   1.380586e+02   1.730230e+07   1.729571e+07   1.730366e+07   6.033406e+02   6.033406e+02   1.350618e+02   1.148628e+02   7.105093e+01  -5.422728e+01   9.796583e+01  -1.009428e+02  -7.039605e+01   8.657010e+00  -8.868131e-01  -7.001517e-03  -4.620752e-01  -4.175276e-01  -4.164241e-01   8.076272e-01   1.980739e-01  -9.091435e-01  -3.663670e-01  -1.228693e+07  -1.174068e+07   6.326405e+06  -3.875822e-01   5.914480e-01  -7.070851e-01  -9.050389e-01  -9.838551e-02   4.137933e-01   1.751703e-01   8.003184e-01   5.734159e-01  -4.575831e+01   1.538434e+01   1.042255e+02   4.461991e-01   5.029178e-01   7.402568e-01   5.380737e-02   8.105914e-01  -5.831349e-01   8.933147e-01  -3.000255e-01  -3.346244e-01
   5.000000e-03   5.000000e-03   4.399593e-01   1.035988e+02   2.457944e+01   0.000000e+00   0.000000e+00   0.000000e+00   0.000000e+00   0.000000e+00   0.000000e+00   0.000000e+00   0.000000e+00   0.000000e+00   0.000000e+00   0.000000e+00   0.000000e+00   0.000000e+00   0.000000e+00   0.000000e+00   0.000000e+00   0.000000e+00   0.000000e+00   0.000000e+00   0.000000e+00   0.000000e+00   0.000000e+00   0.000000e+00   0.000000e+00   0.000000e+00   0.000000e+00   0.000000e+00   0.000000e+00   0.000000e+00   0.000000e+00   0.000000e+00   0.000000e+00   0.000000e+00   0.000000e+00   0.000000e+00   0.000000e+00   1.000000e+00   2.301955e-17  -2.713987e-18  -9.106437e-18   1.000000e+00   2.125744e-18  -9.563912e-02   2.107341e-02   1.197488e+00   9.990543e-01   2.083729e-04   4.347887e-02   2.083729e-04   9.999541e-01  -9.580265e-03  -4.347887e-02   9.580265e-03   9.990084e-01   1.003213e+00   1.000156e+00   1.196300e+00  -7.078752e-04  -5.206542e-02   1.147225e-02   4.573421e-03   2.220443e-04   2.169884e-01  -1.007721e-03  -5.726334e-02   1.261757e-02   7.392794e-02   1.582983e-01  -3.189327e-03  -1.548451e-04   1.513193e-01   7.027459e-04  -3.334752e-02   7.347891e-03   4.932504e-02   1.093677e-01   0.000000e+00   0.000000e+00   0.000000e+00   0.000000e+00   0.000000e+00   0.000000e+00  -3.131246e+00   6.430141e-01   6.397277e+00   0.000000e+00   0.000000e+00   6.397277e+00   0.000000e+00  -1.565623e+00   3.215070e-01   0.000000e+00   1.565623e+00  -3.215070e-01   0.000000e+00   0.000000e+00   0.000000e+00   0.000000e+00   1.855685e+00   1.855685e+00   7.151456e+00   6.784853e+00   2.260328e+00   0.000000e+00   0.000000e+00   0.000000e+00   0.000000e+00   0.000000e+00   0.000000e+00   0.000000e+00   0.000000e+00   0.000000e+00   0.000000e+00   0.000000e+00   0.000000e+00   0.000000e+00   0.000000e+00   0.000000e+00   0.000000e+00   0.000000e+00   0.000000e+00   0.000000e+00   0.000000e+00   0.000000e+00   0.000000e+00   0.000000e+00   0.000000e+00   0.000000e+00   0.000000e+00  -3.770895e-01   1.193433e-19   6.774366e+00   9.533838e-01  -1.957812e-01   2.296281e-01   2.011564e-01   9.795591e-01   4.684092e-19   2.249343e-01  -4.619116e-02  -9.732785e-01
   5.000000e-03   1.500000e-02   1.466531e-01   3.699029e+01   7.064042e+01   1.433202e-01   3.460410e-01   5.106388e-01  -2.124457e-01  -2.957482e-02  -8.148389e-02   1.932374e+01   1.794876e+01   1.683073e+01   4.646030e+00   2.015797e+00   1.719699e+00   4.297771e+02  -4.883080e+03   4.140239e+03   3.211009e+03   2.735901e+03  -8.551092e+03   2.010794e+02   3.340944e+03  -2.874168e+03   5.347566e+03  -4.286716e+03   1.439803e+03   8.978315e+03  -2.007405e+04   4.335947e+03   1.361321e+02   3.325214e+03  -2.881734e+03   5.332066e+03  -4.347042e+03   1.429640e+03   8.972331e+03  -2.007545e+04   4.279378e+03  -3.685052e+03   3.615107e+03   2.057455e-02  -3.510289e+02   3.535435e+02  -6.356619e-02   4.029423e+03  -3.900110e+03   5.817155e-01  -8.435214e-03   9.599544e-01   2.800291e-01   1.788143e-01   2.769734e-01  -9.440928e-01   9.838467e-01  -4.210960e-02   1.739899e-01   3.932649e+03   3.732493e+03   1.669865e-01  -3.804386e+03   5.607788e-01  -2.235132e-02   1.496954e+07   1.420242e+07  -3.285715e-01  -1.458058e+07   1.145236e+03  -1.108424e+03   9.723988e+06   1.944762e+07  -8.992721e-01  -1.670702e+01  -1.915385e-02   4.906136e+00  -8.522800e-01   2.987816e+00  -5.875150e+00   1.274961e+01   2.642946e+01  -8.478414e+01  -1.219163e+00   1.904271e+01  -2.153831e+01  -4.006570e-02  -2.142684e+01   4.897833e+01  -8.252150e+00   2.642946e+01  -2.153831e+01  -8.252150e+00  -3.287071e+01  -1.132300e+01   2.446913e+01  -5.191343e+01   1.010384e+01  -2.450920e+01   3.224230e+01   2.297240e+04   2.389324e+04   2.388704e+04   7.638320e+03   7.638320e+03   1.078933e+02   6.960875e+01   8.243533e+01   1.803441e+01   8.860888e+00   1.372008e+01   1.669706e+01   2.368610e+01   6.614683e-01  -6.933090e-01  -2.859761e-01   1.612336e-02  -3.680807e-01   9.296540e-01   7.497998e-01   6.195475e-01   2.322953e-01  -2.343153e+04   2.696104e+03   2.042236e+04   3.494401e-01  -7.121144e-01  -6.089209e-01   9.087140e-01   4.159454e-01   3.504639e-02  -2.283208e-01   5.655816e-01  -7.924564e-01  -4.659274e+01  -7.879926e+00   5.111166e+01  -3.093055e-01  -8.404143e-01   4.450099e-01  -5.098524e-01  -2.484610e-01  -8.236004e-01   8.027332e-01  -4.816335e-01  -3.516369e-01
   5.000000e-03   1.500000e-02   4.399593e-01   2.779385e+01   9.434482e+01   0.000000e+00   0.000000e+00   0.000000e+00   0.000000e+00   0.000000e+00   0.000000e+00   0.000000e+00   0.000000e+00   0.000000e+00   0.000000e+00   0.000000e+00   0.000000e+00   0.000000e+00   0.000000e+00   0.000000e+00   0.000000e+00   0.000000e+00   0.000000e+00   0.000000e+00   0.000000e+00   0.000000e+00   0.000000e+00   0.000000e+00   0.000000e+00   0.000000e+00   0.000000e+00   0.000000e+00   0.000000e+00   0.000000e+00   0.000000e+00   0.000000e+00   0.000000e+00   0.000000e+00   0.000000e+00   0.000000e+00   0.000000e+00   0.000000e+00   0.000000e+00   0.000000e+00   0.000000e+00   0.000000e+00   0.000000e+00   0.000000e+00   0.000000e+00   0.000000e+00   0.000000e+00   0.000000e+00   0.000000e+00   0.000000e+00   0.000000e+00   0.000000e+00   0.000000e+00   0.000000e+00   0.000000e+00   0.000000e+00   0.000000e+00   0.000000e+00   0.000000e+00   0.000000e+00   0.000000e+00  -5.000000e-01  -5.000000e-01  -5.000000e-01   0.000000e+00   0.000000e+00   0.000000e+00  -5.000000e-01   0.000000e+00   0.000000e+00   0.000000e+00   0.000000e+00   0.000000e+00   0.000000e+00   0.000000e+00   0.000000e+00   0.000000e+00   0.000000e+00   0.000000e+00   0.000000e+00   0.000000e+00   0.000000e+00   0.000000e+00   0.000000e+00   0.000000e+00   0.000000e+00   0.000000e+00   0.000000e+00   0.000000e+00   0.000000e+00   0.000000e+00   0.000000e+00   0.000000e+00   0.000000e+00   0.000000e+00   0.000000e+00   0.000000e+00   0.000000e+00   0.000000e+00   0.000000e+00   0.000000e+00   0.000000e+00   0.000000e+00   0.000000e+00   0.000000e+00   0.000000e+00   0.000000e+00   0.000000e+00   0.000000e+00   0.000000e+00   0.000000e+00   0.000000e+00   0.000000e+00   0.000000e+00   0.000000e+00   0.000000e+00   0.000000e+00   0.000000e+00   0.000000e+00   0.000000e+00   0.000000e+00   0.000000e+00   0.000000e+00   0.000000e+00   0.000000e+00   0.000000e+00   0.000000e+00   0.000000e+00   0.000000e+00   0.000000e+00   0.000000e+00   0.000000e+00   0.000000e+00   0.000000e+00   0.000000e+00   0.000000e+00   0.000000e+00   0.000000e+00   0.000000e+00   0.000000e+00   0.000000e+00   0.000000e+00
   1.500000e-02   5.000000e-03   1.466531e-01   3.335713e+01   7.844329e+01   7.647605e-01   1.488623e-01   8.637727e-02   7.615510e-02  -1.053846e-01  -3.302245e-02   3.745906e+00   8.062985e+00   7.827157e+00   1.224900e+00   1.255165e-01   4.759982e-01  -8.062836e+03  -4.459782e+03  -2.733379e+03  -2.411159e+03   2.161827e+03   7.412815e+03  -8.121566e+03  -2.992063e+03   1.691151e+03  -1.697510e+03  -5.109095e+03   6.783767e+03   2.602224e+03   8.167264e+03  -2.592578e+03  -7.953079e+03  -2.928289e+03   1.699453e+03  -1.651095e+03  -4.746432e+03   6.800497e+03   2.605212e+03   8.193353e+03  -2.240523e+03   1.411139e+03  -4.113762e+02  -4.795729e-02  -8.924281e+02   1.859390e+02   1.937606e-02   8.235314e+03  -2.483047e+03   7.306553e-01   2.022830e-01   9.087075e-02  -9.751021e-01  -3.812120e-01  -9.098481e-01  -1.638713e-01   9.020859e-01  -4.048690e-01   1.494058e-01   8.054615e+03   7.987503e+02   1.527522e-01  -2.394018e+03   6.420265e-01  -3.178069e-01   3.530407e+07   3.184662e+06  -2.317338e-01  -1.059756e+07   2.966105e+03  -8.954599e+02   1.282958e+07   2.565595e+07  -1.992953e+01  -8.765025e-02   2.192420e-02  -3.464651e+00   3.125196e+00   5.299946e-01  -6.665086e+00   1.433009e+01   1.297733e+01  -1.569300e+01  -1.952580e-01  -1.394304e+00   4.047647e+01   7.383012e-03   9.942624e+00  -1.116145e+01  -8.475020e+00   1.297733e+01   4.047647e+01  -8.475020e+00  -8.543652e+00   4.873683e+00  -5.577032e+00  -7.149348e+00  -5.068941e+00   5.584415e+00   1.199568e+01   1.501476e+04   1.526347e+04   1.500514e+04   8.773680e+03   8.773680e+03   4.847956e+01   4.619829e+01   1.469646e+01   6.545349e+00   4.678885e+00   3.510968e+00   7.436665e+00   8.688415e+00   9.747322e-01  -2.228759e-01   1.494710e-02  -1.367303e-01  -5.423888e-01   8.289266e-01  -1.766406e-01  -8.100252e-01  -5.591577e-01  -1.349652e+04  -6.366375e+03   4.606900e+03   4.939464e-01   6.324530e-01  -5.966743e-01   8.672269e-01  -4.078566e-01   2.856056e-01   6.272541e-02   6.585258e-01   7.499395e-01  -9.815788e+00   1.101574e+01   4.377882e+01  -1.803821e-01   7.808587e-02   9.804922e-01  -9.417549e-01  -3.013648e-01  -1.492550e-01   2.838311e-01  -9.503062e-01   1.278986e-01
   1.500000e-02   5.000000e-03   4.399593e-01   2.352489e+01   1.116466e+02   0.000000e+00   0.000000e+00   0.000000e+00   0.000000e+00   0.000000e+00   0.000000e+00   0.000000e+00   0.000000e+00   0.000000e+00   0.000000e+00   0.000000e+00   0.000000e+00   0.000000e+00   0.000000e+00   0.000000e+00   0.000000e+00   0.000000e+00   0.000000e+00   0.000000e+00   0.000000e+00   0.000000e+00   0.000000e+00   0.000000e+00   0.000000e+00   0.000000e+00   0.000000e+00   0.000000e+00   0.000000e+00   0.000000e+00   0.000000e+00   0.000000e+00   0.000000e+00   0.000000e+00   0.000000e+00   0.000000e+00   0.000000e+00   0.000000e+00   0.000000e+00   0.000000e+00   0.000000e+00   0.000000e+00   0.000000e+00   0.000000e+00   0.000000e+00   0.000000e+00   0.000000e+00   0.000000e+00   0.000000e+00   0.000000e+00   0.000000e+00   0.000000e+00   0.000000e+00   0.000000e+00   0.000000e+00   0.000000e+00   0.000000e+00   0.000000e+00   0.000000e+00   0.000000e+00   0.000000e+00  -5.000000e-01  -5.000000e-01  -5.000000e-01   0.000000e+00   0.000000e+00   0.000000e+00  -5.000000e-01   0.000000e+00   0.000000e+00   0.000000e+00   0.000000e+00   0.000000e+00   0.000000e+00   0.000000e+00   0.000000e+00   0.000000e+00   0.000000e+00   0.000000e+00   0.000000e+00   0.000000e+00   0.000000e+00   0.000000e+00   0.000000e+00   0.000000e+00   0.000000e+00   0.000000e+00   0.000000e+00   0.000000e+00   0.000000e+00   0.000000e+00   0.000000e+00   0.000000e+00   0.000000e+00   0.000000e+00   0.000000e+00   0.000000e+00   0.000000e+00   0.000000e+00   0.000000e+00   0.000000e+00   0.000000e+00   0.000000e+00   0.000000e+00   0.000000e+00   0.000000e+00   0.000000e+00   0.000000e+00   0.000000e+00   0.000000e+00   0.000000e+00   0.000000e+00   0.000000e+00   0.000000e+00   0.000000e+00   0.000000e+00   0.000000e+00   0.000000e+00   0.000000e+00   0.000000e+00   0.000000e+00   0.000000e+00   0.000000e+00   0.000000e+00   0.000000e+00   0.000000e+00   0.000000e+00   0.000000e+00   0.000000e+00   0.000000e+00   0.000000e+00   0.000000e+00   0.000000e+00   0.000000e+00   0.000000e+00   0.000000e+00   0.000000e+00   0.000000e+00   0.000000e+00   0.000000e+00   0.000000e+00   0.000000e+00
   1.500000e-02   1.500000e-02   1.466531e-01   2.729429e+01   9.608989e+01   0.000000e+00   0.000000e+00   0.000000e+00   0.000000e+00   0.000000e+00   0.000000e+00   3.945550e+00   8.741653e+00   1.189007e+01  -8.292968e-01   1.729332e+00   3.561515e-01   2.721206e+02   2.017251e+02   9.781231e+02  -6.321821e+02   3.424048e+02  -6.093210e+02   7.253990e+01   1.937481e+02   3.415573e+02  -2.396860e+02   8.575824e+02  -6.187811e+02   3.905161e+02  -1.152204e+03   1.072367e+03  -5.859765e+01   2.189101e+02   2.935432e+02  -2.097217e+02   5.670376e+02  -6.238152e+02   3.235753e+02  -1.170845e+03   6.771793e+02   2.020858e+02  -2.116987e+02  -2.821312e-02   2.272627e+02  -2.593090e+02  -2.429639e-02   3.433355e+03  -3.893190e+03   7.747884e-01   7.823488e-01   6.152382e-01  -9.701713e-02  -3.162231e-02  -1.163288e-01  -9.927072e-01   6.220373e-01  -7.797112e-01   7.155444e-02   2.286590e+03   2.935484e+03   8.229591e-02  -2.579131e+03   4.606431e-01  -6.186426e-01   5.940206e+06   7.634491e+06  -1.991583e-01  -6.734207e+06   1.324450e+03  -1.502063e+03   4.524899e+06   9.049732e+06  -1.290098e-01  -7.316927e+01   1.221570e-01  -6.786920e+00   4.862585e-01   5.275845e+00  -2.439204e+01   4.978035e+01   1.385364e+01  -6.157708e+01  -3.432273e+00  -2.196923e+01  -3.949644e+01  -2.480733e+00   1.615696e+01   4.276422e+01  -7.594022e+00   1.385364e+01  -3.949644e+01  -7.594022e+00  -4.177315e+01   6.362346e+00   2.014175e+01  -1.980392e+01  -9.794619e+00  -2.262248e+01   1.553140e+01   1.760334e+03   1.991306e+03   1.681170e+03   5.210508e+03   5.210508e+03   9.050804e+01   7.868858e+01   4.471927e+01   8.192425e+00   7.972861e+00   3.278024e+00   8.895962e+00   1.240329e+01   9.548301e-01   1.816908e-01  -2.351337e-01   1.985231e-01  -9.788298e-01   4.980782e-02  -2.211062e-01  -9.423748e-02  -9.706860e-01  -7.335428e+02   2.512617e+02   1.934250e+03   5.543666e-01   7.795969e-01   2.913868e-01  -7.074272e-01   2.569504e-01   6.584248e-01   4.384340e-01  -5.711437e-01   6.939528e-01  -6.935500e+01  -1.039518e+00   3.715770e+01  -4.446111e-01  -8.370739e-01   3.187919e-01   2.426353e-01   2.300468e-01   9.424471e-01  -8.622350e-01   4.963726e-01   1.008223e-01
   1.500000e-02   1.500000e-02   4.399593e-01   1.979327e+01   1.328839e+02   0.000000e+00   0.000000e+00   0.000000e+00   0.000000e+00   0.000000e+00   0.000000e+00   0.000000e+00   0.000000e+00   0.000000e+00   0.000000e+00   0.000000e+00   0.000000e+00   0.000000e+00   0.000000e+00   0.000000e+00   0.000000e+00   0.000000e+00   0.000000e+00   0.000000e+00   0.000000e+00   0.000000e+00   0.000000e+00   0.000000e+00   0.000000e+00   0.000000e+00   0.000000e+00   0.000000e+00   0.000000e+00   0.000000e+00   0.000000e+00   0.000000e+00   0.000000e+00   0.000000e+00   0.000000e+00   0.000000e+00   0.000000e+00   0.000000e+00   0.000000e+00   0.000000e+00   0.000000e+00   0.000000e+00   0.000000e+00   0.000000e+00   0.000000e+00   0.000000e+00   0.000000e+00   0.000000e+00   0.000000e+00   0.000000e+00   0.000000e+00   0.000000e+00   0.000000e+00   0.000000e+00   0.000000e+00   0.000000e+00   0.000000e+00   0.000000e+00   0.000000e+00   0.000000e+00   0.000000e+00  -5.000000e-01  -5.000000e-01  -5.000000e-01   0.000000e+00   0.000000e+00   0.000000e+00  -5.000000e-01   0.000000e+00   0.000000e+00   0.000000e+00   0.000000e+00   0.000000e+00   0.000000e+00   0.000000e+00   0.000000e+00   0.000000e+00   0.000000e+00   0.000000e+00   0.000000e+00   0.000000e+00   0.000000e+00   0.000000e+00   0.000000e+00   0.000000e+00   0.000000e+00   0.000000e+00   0.000000e+00   0.000000e+00   0.000000e+00   0.000000e+00   0.000000e+00   0.000000e+00   0.000000e+00   0.000000e+00   0.000000e+00   0.000000e+00   0.000000e+00   0.000000e+00   0.000000e+00   0.000000e+00   0.000000e+00   0.000000e+00   0.000000e+00   0.000000e+00   0.000000e+00   0.000000e+00   0.000000e+00   0.000000e+00   0.000000e+00   0.000000e+00   0.000000e+00   0.000000e+00   0.000000e+00   0.000000e+00   0.000000e+00   0.000000e+00   0.000000e+00   0.000000e+00   0.000000e+00   0.000000e+00   0.000000e+00   0.000000e+00   0.000000e+00   0.000000e+00   0.000000e+00   0.000000e+00   0.000000e+00   0.000000e+00   0.000000e+00   0.000000e+00   0.000000e+00   0.000000e+00   0.000000e+00   0.000000e+00   0.000000e+00   0.000000e+00   0.000000e+00   0.000000e+00   0.000000e+00   0.000000e+00   0.000000e+00
