     VARIABLES=
              x              y              z      nomin_den    nomin_voidr      fabric_xx      fabric_yy      fabric_zz      fabric_xy      fabric_xz      fabric_yz       sigma_xx       sigma_yy       sigma_zz       sigma_xy       sigma_xz       sigma_yz    sigmaDot_xx    sigmaDot_yy    sigmaDot_zz    sigmaDot_xy    sigmaDot_xz    sigmaDot_yz       Oldro_xx       Oldro_xy       Oldro_xz       Oldro_yx       Oldro_yy       Oldro_yz       Oldro_zx       Oldro_zy       Oldro_zz       Trues_xx       Trues_xy       Trues_xz       Trues_yx       Trues_yy       Trues_yz       Trues_zx       Trues_zy       Trues_zz           F_xX           F_xY           F_xZ           F_yX           F_yY           F_yZ           F_zX           F_zY           F_zZ           R_xX           R_xY           R_xZ           R_yX           R_yY           R_yZ           R_zX           R_zY           R_zZ           U_xX           U_yY           U_zZ           U_xY           U_xZ           U_yZ       Green_xx       Green_yy       Green_zz       Green_xy       Green_xz       Green_yz      Green_vol      Green_shr       Euler_xx       Euler_yy       Euler_zz       Euler_xy       Euler_xz       Euler_yz      Euler_vol      Euler_shr           l_xx           l_xy           l_xz           l_yx           l_yy           l_yz           l_zx           l_zy           l_zz           d_xx           d_yy           d_zz           d_xy           d_xz           d_yz           w_xy           w_xz           w_yz     norm_sigma  norm_sigmaDot     norm_Oldro     norm_Trues         norm_F         norm_U         norm_l         norm_d         norm_w              p              q        sigma_1        sigma_2        sigma_3     sigma_1_v1     sigma_1_v2     sigma_1_v3     sigma_2_v1     sigma_2_v2     sigma_2_v3     sigma_3_v1     sigma_3_v2     sigma_3_v3     sigmaDot_1     sigmaDot_2     sigmaDot_3  sigmaDot_1_v1  sigmaDot_1_v2  sigmaDot_1_v3  sigmaDot_2_v1  sigmaDot_2_v2  sigmaDot_2_v3  sigmaDot_3_v1  sigmaDot_3_v2  sigmaDot_3_v3            d_1            d_2            d_3         d_1_v1         d_1_v2         d_1_v3         d_2_v1         d_2_v2         d_2_v3         d_3_v1         d_3_v2         d_3_v3
ZONE I=2, J=2, K=2, DATAPACKING=POINT, STRANDID=5, SOLUTIONTIME=68
   5.000000e-03   5.000000e-03   5.253276e-03   1.575477e+03   6.820305e-01   3.406846e-01   3.072510e-01   3.520644e-01   6.660084e-03  -4.552600e-04   5.909158e-04  -3.167568e+02  -2.445372e+02  -3.730097e+02  -2.424380e+01   2.408495e+01  -2.610396e+01   1.368853e+01  -2.326023e+01  -1.361561e+01   1.429720e+01  -5.970369e+00  -1.404764e+00   8.034648e-01   8.270359e+00  -8.154773e+00   6.192993e+00  -2.536321e+01   1.720898e-01  -2.335540e+00  -1.637446e+00  -1.361418e+01   7.967399e+00   8.818668e+00  -8.699492e+00   6.741304e+00  -1.983263e+01   7.624689e-01  -2.880256e+00  -1.047064e+00  -5.178000e+00   5.032371e+02  -8.528692e+02  -2.713419e-03  -3.360981e+02  -1.006458e+03   2.804781e-03  -8.380941e+01   1.691469e+02   1.988935e-02   7.725912e-01  -6.102410e-01   1.752389e-01  -6.221064e-01  -7.827494e-01   1.693777e-02  -1.268320e-01   1.221032e-01   9.843802e-01   6.085151e+02   1.328913e+03   1.915069e-02  -5.424874e+01  -6.363842e-03   1.888953e-03   1.866163e+05   8.844762e+05  -4.997946e-01  -5.255153e+04  -1.987545e+00   1.427760e+00   3.570307e+05   5.417468e+05  -4.137045e+01   1.091354e-01  -1.320578e+03  -4.045447e+00  -2.351896e+02  -2.272359e+01  -4.539465e+02   9.088930e+02  -2.006057e-02  -2.781127e-03   8.631262e-04  -1.843854e-02  -2.556588e-03   7.934074e-04  -2.278863e-05  -2.784775e-06   6.428654e-07  -2.006057e-02  -2.556588e-03   6.428654e-07  -1.060983e-02   4.201688e-04   3.953113e-04   7.828705e-03   4.429574e-04   3.980961e-04   5.504254e+02   3.766408e+01   3.179153e+01   2.631526e+01   1.463621e+03   1.463621e+03   2.753274e-02   2.519455e-02   1.110345e-02  -3.114346e+02   1.341283e+02  -3.839622e+02  -3.204656e+02  -2.298760e+02  -2.939895e-01   1.262641e-01   9.474321e-01  -9.011376e-01  -3.670490e-01  -2.307077e-01   3.186239e-01  -9.215923e-01   2.216899e-01  -2.764127e+01  -1.391026e+01   1.836423e+01   2.980410e-01  -9.501654e-01  -9.141862e-02   1.351024e-01  -5.281779e-02   9.894229e-01   9.449439e-01   3.072394e-01  -1.126277e-01  -2.507434e-02  -3.618166e-07   2.458189e-03   9.042490e-01   4.264448e-01  -2.187502e-02  -5.076070e-02   5.648673e-02  -9.971121e-01  -4.239776e-01   9.027481e-01   7.272471e-02
   5.000000e-03   5.000000e-03   1.575983e-02   1.087368e+03   1.437076e+00   3.546013e-01   3.200316e-01   3.253672e-01  -9.976432e-03   2.483709e-02   3.457354e-03  -6.727279e+01  -7.666448e+01  -1.060441e+02   8.071046e+00   7.977569e-01   1.504558e+00  -3.239735e+01  -1.513042e+01  -4.739988e+00   1.380476e+01   3.013369e+01  -6.107724e+00  -3.239752e+01   1.234887e+01   2.998585e+01   1.526077e+01  -1.513044e+01  -8.004264e+00   3.028152e+01  -4.211224e+00  -4.740043e+00  -3.239741e+01   1.234886e+01   2.998585e+01   1.526075e+01  -1.513032e+01  -8.004266e+00   3.028152e+01  -4.211226e+00  -4.739871e+00   4.045325e+02  -1.217120e+03   1.976895e-02  -1.073970e+03   1.174091e+03  -1.298039e-03  -1.136228e+02  -8.644495e+02   2.675489e-02   6.245680e-03  -6.724523e-01  -7.401141e-01  -8.660895e-01   3.663227e-01  -3.401420e-01  -4.998499e-01  -6.431295e-01   5.801160e-01   9.894754e+02   1.804504e+03   1.331179e-03  -5.923744e+02  -1.212574e-02  -3.097604e-02   6.649839e+05   1.803571e+06  -4.994458e-01  -8.275410e+05   3.175636e+00  -2.435672e+01   8.228515e+05   1.422080e+06  -1.548447e+05  -3.270628e+04  -9.511759e+04  -7.116522e+04   1.213614e+05   5.577640e+04  -9.422287e+04   1.884467e+05  -1.207265e-06   4.356637e-07   3.122759e-07   1.592159e-07  -1.506294e-07  -2.627957e-07  -5.889119e-07   4.446525e-08  -2.599465e-07  -1.207265e-06  -1.506294e-07  -2.599465e-07   2.974398e-07  -1.383180e-07  -1.091652e-07   1.382239e-07   4.505939e-07  -1.536305e-07   1.475958e+02   5.986896e+01   5.986909e+01   5.986898e+01   2.221961e+03   2.221961e+03   1.509395e-06   1.336708e-06   7.010607e-07  -8.332712e+01   3.783410e+01  -1.061250e+02  -8.127338e+01  -6.258300e+01   1.050926e-02   4.812870e-02  -9.987859e-01  -5.006624e-01   8.648766e-01   3.640800e-02   8.655788e-01   4.996719e-01   3.318544e-02  -5.731397e+01  -1.048747e+01   1.553369e+01  -8.030822e-01   3.394220e-01   4.897466e-01   1.909315e-01   9.251489e-01  -3.280926e-01  -5.644504e-01  -1.699772e-01  -8.077769e-01  -1.296277e-06  -3.262403e-07   4.676469e-09   9.650706e-01  -2.406997e-01   1.034521e-01   2.927695e-02   4.914787e-01   8.703974e-01  -2.603489e-01  -8.369662e-01   4.813586e-01
   5.000000e-03   1.500000e-02   5.253276e-03   1.524977e+03   7.377309e-01   3.310621e-01   3.223499e-01   3.465880e-01  -4.669547e-04   1.405437e-03   1.548731e-02  -2.983291e+02  -2.536589e+02  -2.910075e+02  -7.119637e+00   2.963375e+01  -3.484389e+01   3.994578e+00   6.229107e+00   4.873394e+00  -3.907680e+00   6.055193e-01  -7.797960e-01   5.752722e+00  -6.904300e+00   4.002053e-02  -6.831443e+00   6.210874e+00  -5.600720e-01  -5.139304e-01  -7.100608e-01   4.821944e+00   4.885814e+00  -6.924989e+00   1.261326e-01  -6.852132e+00   5.473771e+00  -6.613239e-01  -4.278182e-01  -8.113133e-01   3.976310e+00  -4.836536e+02   4.884472e+01  -1.250284e+00  -3.695665e+02   1.874834e+02  -1.065978e+00  -5.525141e+02  -5.913191e+02  -5.650936e-01  -6.535717e-01   2.624976e-01  -7.098866e-01  -5.572521e-01   4.678012e-01   6.860263e-01  -5.121661e-01  -8.439532e-01   1.594643e-01   8.050230e+02   5.995722e+02   6.615878e-02   1.664545e+02   1.700591e+00  -3.499500e-01   3.378855e+05   1.935965e+05   1.009426e+00   1.169003e+05   6.554382e+02   3.661379e+01   1.771610e+05   2.377960e+05  -6.534901e+01  -6.166603e+01  -2.847317e+00   6.398102e+01   1.484646e+01  -1.442530e+01  -4.328745e+01   8.757490e+01   2.702444e-03  -2.849920e-04  -2.526960e-03  -9.505442e-03   2.982287e-04  -4.904639e-04  -6.664352e-05  -3.302280e-06  -9.479237e-05   2.702444e-03   2.982287e-04  -9.479237e-05  -4.895217e-03  -1.296802e-03  -2.468831e-04   4.610225e-03  -1.230158e-03  -2.435808e-04   4.922544e+02   1.054349e+01   1.379643e+01   1.287812e+01   1.031004e+03   1.031004e+03   1.022088e-02   7.668945e-03   6.756744e-03  -2.809985e+02   9.028198e+01  -3.296596e+02  -2.873441e+02  -2.259919e+02  -6.268031e-01   2.754462e-01   7.288672e-01  -7.177674e-01  -5.681147e-01  -4.025614e-01  -3.031961e-01   7.754838e-01  -5.538023e-01   1.065580e+00   4.715550e+00   9.315950e+00  -7.928781e-01  -6.056257e-01  -6.754211e-02  -1.711333e-01   1.149164e-01   9.785232e-01   5.848571e-01  -7.874083e-01   1.947574e-01  -3.811711e-03   6.330216e-05   6.654290e-03   6.125114e-01   7.453534e-01   2.632075e-01   6.197331e-02   2.866731e-01  -9.560219e-01   7.880286e-01  -6.018861e-01  -1.293985e-01
   5.000000e-03   1.500000e-02   1.575983e-02   1.197247e+03   1.213411e+00   3.400431e-01   3.266942e-01   3.332628e-01   1.732591e-02   2.019408e-02   1.377526e-03  -1.012194e+02  -8.807166e+01  -1.335785e+02  -1.029763e+01  -9.163920e+00  -1.357698e+00   3.398237e+00   4.570957e+00  -3.287425e+00  -9.400840e+00  -7.353132e+00   1.603755e+00   3.398217e+00  -9.443193e+00  -7.479502e+00  -9.358512e+00   4.570968e+00   1.515133e+00  -7.226822e+00   1.692405e+00  -3.287445e+00   3.398225e+00  -9.443192e+00  -7.479501e+00  -9.358511e+00   4.570975e+00   1.515133e+00  -7.226821e+00   1.692406e+00  -3.287435e+00  -5.673005e+02  -1.815181e+02  -2.392590e-02  -7.769845e+02   1.159322e+03   2.409732e-03   4.112297e+02  -6.674621e+02   1.621839e-02  -8.729067e-01  -4.857541e-01  -4.557223e-02  -4.425552e-01   7.490195e-01   4.930667e-01   2.053747e-01  -4.505694e-01   8.687971e-01   9.235151e+02   1.257266e+03   1.636900e-02  -4.916955e+02   2.314949e-02   6.119533e-03   5.473218e+05   9.112407e+05  -4.995794e-01  -5.361401e+05   9.185168e+00  -1.844259e+00   4.861874e+05   8.147306e+05  -3.369210e+00  -4.532207e+02  -1.408180e+03   4.189917e+01   7.382736e+01  -7.994670e+02  -6.215901e+02   1.244180e+03  -6.180037e-08  -1.259011e-07  -2.607433e-07  -2.443565e-08   6.453640e-08   1.710364e-07   7.334400e-08  -1.028656e-07  -7.894334e-08  -6.180037e-08   6.453640e-08  -7.894334e-08  -7.516836e-08  -9.369964e-08   3.408540e-08  -5.073271e-08  -1.670436e-07   1.369510e-07   1.903389e+02   1.825740e+01   1.825745e+01   1.825745e+01   1.707960e+03   1.707960e+03   3.792962e-07   2.130721e-07   3.137928e-07  -1.076232e+02   4.712806e+01  -1.363326e+02  -1.043219e+02  -8.221501e+01   2.750683e-01   8.562857e-02   9.576039e-01  -8.212409e-01  -4.969654e-01   2.803370e-01   4.999009e-01  -8.635352e-01  -6.637778e-02  -9.297090e+00  -1.509193e+00   1.548805e+01  -6.457035e-01  -3.531144e-01  -6.770357e-01  -3.214267e-01  -6.785759e-01   6.604692e-01   6.926413e-01  -6.440846e-01  -3.246585e-01  -1.677123e-07  -3.513542e-08   1.266404e-07   7.060638e-01   1.262564e-01   6.968022e-01   5.076942e-01   5.957224e-01  -6.223836e-01   4.936806e-01  -7.932050e-01  -3.565184e-01
   1.500000e-02   5.000000e-03   5.253276e-03   1.713035e+03   5.469623e-01   3.321997e-01   3.199091e-01   3.478912e-01   4.590672e-03  -1.143968e-02   2.027224e-02  -2.894543e+02  -2.593583e+02  -3.703035e+02   1.833793e+01  -4.018530e+00  -4.840406e+01   6.734158e+01  -1.386440e+01   7.122291e+01   6.115446e+01  -1.032863e+02  -1.886577e+02   6.733231e+01   8.346220e+01  -9.589919e+01   3.901460e+01  -1.384406e+01  -1.859331e+02  -1.104897e+02  -1.913475e+02   7.122167e+01   6.732402e+01   8.346272e+01  -9.589930e+01   3.901512e+01  -1.385148e+01  -1.859345e+02  -1.104898e+02  -1.913489e+02   7.121106e+01  -7.197140e+00  -1.217070e+02  -2.038578e-02  -1.149865e+03   4.504124e+02   1.727925e-03   1.262951e+03  -8.442013e+02   1.515203e-02  -2.039280e-01  -4.245356e-01  -8.821467e-01  -8.860274e-01  -3.032063e-01   3.507440e-01   4.163758e-01  -8.531327e-01   3.143180e-01   1.546142e+03   6.353169e+02   2.335186e-02  -7.257633e+02   8.935180e-03  -4.796123e-03   1.458644e+06   4.651794e+05  -4.996759e-01  -7.916114e+05   8.648059e+00  -4.765997e+00   6.412742e+05   1.255291e+06  -7.130271e+02  -1.123024e+02  -9.008515e+01   2.837033e+02   2.542341e+02  -1.010852e+02  -3.051382e+02   6.112764e+02  -7.333749e-07   2.876003e-04   2.109994e-04  -1.440763e-06   3.271484e-05   3.432238e-05   1.431663e-07   1.271663e-05  -3.344175e-06  -7.333749e-07   3.271484e-05  -3.344175e-06   1.430798e-04   1.055713e-04   2.351951e-05   1.445205e-04   1.054281e-04   1.080287e-05   5.418172e+02   3.330286e+02   3.329798e+02   3.329780e+02   1.961542e+03   1.961542e+03   3.600812e-04   2.557783e-04   2.534481e-04  -3.063720e+02   1.340185e+02  -3.885251e+02  -2.957115e+02  -2.348794e+02   2.767404e-02  -3.542031e-01  -9.347590e-01  -9.461533e-01   2.924409e-01  -1.388244e-01   3.225337e-01   8.882671e-01  -3.270374e-01  -1.744942e+02   1.670280e+01   2.824915e+02  -1.805719e-01  -7.349465e-01  -6.536416e-01  -8.679951e-01   4.316260e-01  -2.455268e-01   4.625778e-01   5.230225e-01  -7.158696e-01  -1.585685e-04  -1.306382e-05   2.002696e-04   7.470455e-01  -5.057396e-01  -4.314517e-01   5.904405e-02  -5.959779e-01   8.008272e-01   6.621457e-01   6.237289e-01   4.153617e-01
   1.500000e-02   5.000000e-03   1.575983e-02   1.115058e+03   1.376559e+00   3.330019e-01   3.613500e-01   3.056481e-01   1.096332e-02   3.956546e-03   2.199398e-03  -1.117929e+02  -1.198460e+02  -1.336794e+02  -1.341794e+00   8.929801e-01   1.509293e+01   3.210359e+01   6.537327e+00  -2.928372e+00   1.549724e+01   2.039125e+01  -2.812297e+01   3.210366e+01   1.409574e+01   9.331167e+00   1.689897e+01   6.537219e+00  -3.073034e+01   3.145197e+01  -2.551620e+01  -2.928598e+00   3.210380e+01   1.409574e+01   9.331166e+00   1.689898e+01   6.537372e+00  -3.073036e+01   3.145196e+01  -2.551622e+01  -2.928426e+00  -1.124083e+03   1.271325e+03   1.067151e+01   5.422837e+02  -2.595664e+02  -1.056540e+01   1.155394e+03   5.020247e+02   3.861076e+00  -5.138167e-01   8.180652e-01  -2.583831e-01   3.000325e-01  -1.108089e-01  -9.474713e-01   8.037244e-01   5.643499e-01   1.885107e-01   1.668894e+03   1.352107e+03   7.980928e+00  -3.276169e+02  -5.549921e+00   1.207973e+01   1.446285e+06   9.678350e+05   1.197083e+02  -4.948989e+05  -6.632023e+03   9.123866e+03   8.047466e+05   1.024922e+06   4.994273e-01   4.927722e-01   4.997233e-01  -2.034181e-03   3.976824e-04   1.413318e-03   4.973076e-01   5.384272e-03   3.155873e-07   1.829103e-06   3.222310e-06  -4.810762e-07  -6.024993e-07  -1.244911e-06  -7.469897e-07  -1.291232e-06  -9.938300e-07   3.155873e-07  -6.024993e-07  -9.938300e-07   6.740134e-07   1.237660e-06  -1.268072e-06   1.155090e-06   1.984650e-06   2.316067e-08   2.125834e+02   6.509899e+01   6.509953e+01   6.509963e+01   2.197381e+03   2.197381e+03   4.380149e-06   2.939133e-06   3.247646e-06  -1.217728e+02   3.253927e+01  -1.434340e+02  -1.119565e+02  -1.099279e+02  -4.661763e-02  -5.402639e-01   8.402034e-01  -9.399310e-01  -2.610228e-01  -2.199926e-01  -3.381663e-01   7.999888e-01   4.956425e-01  -4.105040e+01   2.608878e+01   5.067416e+01  -4.345841e-01   5.405723e-01   7.203598e-01   2.252287e-01   8.396558e-01  -4.942167e-01  -8.720142e-01  -5.253297e-02  -4.866534e-01  -2.713933e-06   3.658457e-07   1.067346e-06  -4.168819e-01   5.620859e-01   7.143311e-01   3.672396e-01   8.230342e-01  -4.333009e-01  -8.314713e-01   8.169536e-02  -5.495283e-01
   1.500000e-02   1.500000e-02   5.253276e-03   1.596827e+03   6.595413e-01   3.125962e-01   3.300929e-01   3.573109e-01  -2.271928e-03   1.064057e-02   2.115505e-02  -3.137724e+02  -3.486160e+02  -3.549309e+02  -4.050284e+01   1.805131e+01   2.113403e+01  -3.093963e+01  -3.670052e+01  -3.102211e+01  -3.451598e+00   3.782439e+00   1.129357e+00  -2.915220e+00   5.342281e+01  -1.365838e+01   5.235286e+01  -1.391457e+02   8.506124e+00  -1.503281e+01   1.126713e+01  -1.253234e+01   2.844213e+01   5.747035e+01  -1.546232e+01   5.640075e+01  -1.043062e+02   6.393709e+00  -1.683684e+01   9.155418e+00   2.293824e+01   5.933960e+02  -2.693132e+02   4.845095e-03  -1.266334e+03   1.072983e+03  -2.490209e-03  -8.354353e+02   7.810754e+02   1.004554e-02   8.194793e-01   5.217977e-01  -2.370251e-01  -5.435797e-01   5.766252e-01  -6.099381e-01  -1.815896e-01   6.286736e-01   7.561711e-01   1.326336e+03   9.692236e+02   7.966610e-03  -9.457836e+02   3.499917e-03   7.407608e-03   1.326836e+06   9.169499e+05  -4.999347e-01  -1.085551e+06  -1.181951e+00   1.934762e+00   7.479284e+05   1.478725e+06  -4.422806e+02  -2.930625e+03  -4.504317e+03  -1.139230e+03   1.412319e+03   3.633756e+03  -2.625741e+03   5.252482e+03   4.263687e-02   1.378325e-02  -4.191940e-03   1.829144e-01  -1.648290e-01   5.531896e-02  -4.512719e-02  -2.512984e-02   2.225557e-02   4.263687e-02  -1.648290e-01   2.225557e-02   9.834883e-02  -2.465956e-02   1.509456e-02  -8.456557e-02   2.046762e-02   4.022440e-02   5.922737e+02   5.767913e+01   1.604174e+02   1.390901e+02   2.118389e+03   2.118389e+03   2.624409e-01   2.247191e-01   1.355600e-01  -3.391064e+02   9.334318e+01  -3.945391e+02  -3.358794e+02  -2.869007e+02  -4.662219e-01  -6.745694e-01   5.723576e-01   2.663654e-01   5.099144e-01   8.179467e-01  -8.436152e-01   5.338010e-01  -5.805130e-02  -4.021910e+01  -3.075937e+01  -2.768379e+01  -4.687781e-01  -7.993197e-01   3.759455e-01  -4.036714e-01   5.724223e-01   7.137101e-01  -7.856822e-01   1.828132e-01  -5.910016e-01  -2.063955e-01   1.981669e-02   8.664224e-02   3.740842e-01  -9.218565e-01   1.012012e-01   2.118076e-01   1.911669e-01   9.584325e-01  -9.028835e-01  -3.370992e-01   2.667687e-01
   1.500000e-02   1.500000e-02   1.575983e-02   1.193231e+03   1.220861e+00   3.295687e-01   3.120910e-01   3.583403e-01  -1.015338e-02  -9.363665e-03  -6.333301e-03  -7.720044e+01  -7.542346e+01  -1.002091e+02   4.979298e-01   1.203995e+01   4.089462e+00  -1.810224e+00   3.119288e+00  -7.532630e+00  -7.613444e-02  -2.450344e+00  -1.157948e+00  -1.810232e+00   6.677696e-02  -1.550025e+00  -2.190343e-01   3.119288e+00  -1.207573e+00  -3.350688e+00  -1.108278e+00  -7.532665e+00  -1.810213e+00   6.677684e-02  -1.550028e+00  -2.190344e-01   3.119306e+00  -1.207574e+00  -3.350691e+00  -1.108279e+00  -7.532641e+00  -6.868624e+02   6.663999e+02  -2.046772e-02  -8.595599e+02   5.223412e+02  -1.319020e-02   4.212961e+02  -3.533681e+02   1.196912e-02  -9.087298e-02   9.288243e-01   3.592039e-01  -9.737723e-01  -1.584258e-01   1.633060e-01   2.085898e-01  -3.349427e-01   9.188600e-01   9.873109e+02   6.545742e+02   1.491818e-03  -6.429081e+02   1.720085e-02  -2.093021e-02   6.940563e+05   4.208986e+05  -4.996319e-01  -5.277906e+05   1.521941e+01  -1.237949e+01   3.716515e+05   7.310363e+05  -2.901496e+04  -5.994339e+03  -1.898205e+05  -1.318875e+04  -7.421417e+04  -3.373346e+04  -7.494327e+04   1.498875e+05  -6.466677e-08   2.837506e-09  -7.938031e-08   8.962318e-08   6.321476e-09   1.424862e-07  -9.447504e-08   1.213550e-07  -1.801540e-07  -6.466677e-08   6.321476e-09  -1.801540e-07   4.623034e-08  -8.692767e-08   1.319206e-07  -4.339284e-08   7.547366e-09   1.056562e-08   1.483723e+02   9.279871e+00   9.279902e+00   9.279887e+00   1.493289e+03   1.493289e+03   3.081780e-07   3.014476e-07   6.405519e-08  -8.427766e+01   3.254591e+01  -1.057777e+02  -7.605568e+01  -7.099963e+01  -3.838557e-01  -1.171024e-01   9.159377e-01  -4.614118e-01   8.835345e-01  -8.041103e-02  -7.998462e-01  -4.534907e-01  -3.931822e-01  -9.175657e+00  -2.851987e-01   3.237290e+00   4.146329e-01   8.902236e-02   9.056239e-01   9.094541e-01  -7.464915e-02  -4.090486e-01  -3.118958e-02  -9.932283e-01   1.119137e-01  -2.912392e-07  -2.189815e-08   7.463805e-08  -3.985287e-01   4.227568e-01  -8.139113e-01  -9.171022e-01  -1.740911e-01   3.586304e-01  -9.918684e-03  -8.893644e-01  -4.570915e-01
