     VARIABLES=
              x              y              z      nomin_den    nomin_voidr      fabric_xx      fabric_yy      fabric_zz      fabric_xy      fabric_xz      fabric_yz       sigma_xx       sigma_yy       sigma_zz       sigma_xy       sigma_xz       sigma_yz    sigmaDot_xx    sigmaDot_yy    sigmaDot_zz    sigmaDot_xy    sigmaDot_xz    sigmaDot_yz       Oldro_xx       Oldro_xy       Oldro_xz       Oldro_yx       Oldro_yy       Oldro_yz       Oldro_zx       Oldro_zy       Oldro_zz       Trues_xx       Trues_xy       Trues_xz       Trues_yx       Trues_yy       Trues_yz       Trues_zx       Trues_zy       Trues_zz           F_xX           F_xY           F_xZ           F_yX           F_yY           F_yZ           F_zX           F_zY           F_zZ           R_xX           R_xY           R_xZ           R_yX           R_yY           R_yZ           R_zX           R_zY           R_zZ           U_xX           U_yY           U_zZ           U_xY           U_xZ           U_yZ       Green_xx       Green_yy       Green_zz       Green_xy       Green_xz       Green_yz      Green_vol      Green_shr       Euler_xx       Euler_yy       Euler_zz       Euler_xy       Euler_xz       Euler_yz      Euler_vol      Euler_shr           l_xx           l_xy           l_xz           l_yx           l_yy           l_yz           l_zx           l_zy           l_zz           d_xx           d_yy           d_zz           d_xy           d_xz           d_yz           w_xy           w_xz           w_yz     norm_sigma  norm_sigmaDot     norm_Oldro     norm_Trues         norm_F         norm_U         norm_l         norm_d         norm_w              p              q        sigma_1        sigma_2        sigma_3     sigma_1_v1     sigma_1_v2     sigma_1_v3     sigma_2_v1     sigma_2_v2     sigma_2_v3     sigma_3_v1     sigma_3_v2     sigma_3_v3     sigmaDot_1     sigmaDot_2     sigmaDot_3  sigmaDot_1_v1  sigmaDot_1_v2  sigmaDot_1_v3  sigmaDot_2_v1  sigmaDot_2_v2  sigmaDot_2_v3  sigmaDot_3_v1  sigmaDot_3_v2  sigmaDot_3_v3            d_1            d_2            d_3         d_1_v1         d_1_v2         d_1_v3         d_2_v1         d_2_v2         d_2_v3         d_3_v1         d_3_v2         d_3_v3
ZONE I=2, J=2, K=2, DATAPACKING=POINT, STRANDID=5, SOLUTIONTIME=69
   5.000000e-03   5.000000e-03   5.253276e-03   1.575477e+03   6.820305e-01   3.407097e-01   3.072030e-01   3.520872e-01   6.666785e-03  -4.680909e-04   5.681479e-04  -3.168139e+02  -2.446481e+02  -3.731088e+02  -2.427325e+01   2.412946e+01  -2.613204e+01  -2.998339e+00  -1.559491e+01  -1.649682e+00   7.428401e+00   6.668272e-01  -6.362252e-01  -6.960010e+00   7.454471e+00   6.672245e-01   2.928637e+00  -1.626463e+01  -3.701830e-01   1.177696e+00  -4.626279e-01  -1.656569e+00  -4.747323e+00   7.623999e+00   4.987001e-01   3.098166e+00  -1.455597e+01  -1.876732e-01   1.009171e+00  -2.801156e-01   9.492930e-01   5.029954e+02  -8.538438e+02  -2.695340e-03  -3.332379e+02  -1.003928e+03   2.821616e-03  -8.495109e+01   1.681282e+02   1.988027e-02   7.722629e-01  -6.103916e-01   1.761591e-01  -6.221236e-01  -7.827752e-01   1.500653e-02  -1.287331e-01   1.211817e-01   9.842473e-01   6.066959e+02   1.327403e+03   1.913464e-02  -5.646828e+01  -6.396156e-03   1.845648e-03   1.856338e+05   8.825934e+05  -4.997948e-01  -5.460762e+04  -1.992432e+00   1.405567e+00   3.560756e+05   5.410025e+05  -4.188240e+01   1.927016e-01  -1.322439e+03  -3.608879e+00  -2.367896e+02  -2.016274e+01  -4.547095e+02   9.104189e+02  -6.166807e-03  -8.537679e-04   2.644792e-04  -5.868958e-03  -8.133834e-04   2.522310e-04   9.486120e-05   1.288590e-05  -3.995921e-06  -6.166807e-03  -8.133834e-04  -3.995921e-06  -3.361363e-03   1.796702e-04   1.325585e-04   2.507595e-03   8.480901e-05   1.196726e-04   5.505838e+02   1.942550e+01   1.954619e+01   1.744761e+01   1.461662e+03   1.461662e+03   8.602758e-03   7.835072e-03   3.552337e-03  -3.115236e+02   1.341736e+02  -3.840872e+02  -3.205379e+02  -2.299457e+02  -2.942146e-01   1.263268e-01   9.473538e-01  -9.008929e-01  -3.676129e-01  -2.307654e-01   3.191077e-01  -9.213589e-01   2.219640e-01  -1.749962e+01  -2.046052e+00  -6.972651e-01  -3.383390e-01   9.391020e-01   6.011746e-02   5.291452e-01   2.426904e-01  -8.130847e-01  -7.781594e-01  -2.432874e-01  -5.790330e-01  -7.793199e-03   6.180719e-08   8.089505e-04   9.003994e-01   4.341521e-01  -2.815763e-02  -4.757988e-02   3.393139e-02  -9.982909e-01  -4.324547e-01   9.002003e-01   5.120871e-02
   5.000000e-03   5.000000e-03   1.575983e-02   1.087368e+03   1.437076e+00   3.546013e-01   3.200316e-01   3.253672e-01  -9.976436e-03   2.483709e-02   3.457357e-03  -6.659337e+01  -7.675202e+01  -1.060665e+02   7.995544e+00   9.445928e-01   1.476625e+00   1.604090e+01   3.405383e+00  -1.050053e+00  -7.441302e-01  -7.308302e+00  -4.000858e+00   1.604097e+01  -3.186766e+00  -5.942862e+00   1.698471e+00   3.405376e+00  -2.993206e+00  -8.673803e+00  -5.008451e+00  -1.050021e+00   1.604093e+01  -3.186761e+00  -5.942862e+00   1.698475e+00   3.405332e+00  -2.993205e+00  -8.673803e+00  -5.008450e+00  -1.050081e+00   4.045324e+02  -1.217120e+03   1.976895e-02  -1.073970e+03   1.174091e+03  -1.298039e-03  -1.136228e+02  -8.644495e+02   2.675489e-02   6.245658e-03  -6.724523e-01  -7.401141e-01  -8.660895e-01   3.663228e-01  -3.401420e-01  -4.998499e-01  -6.431294e-01   5.801160e-01   9.894754e+02   1.804504e+03   1.331180e-03  -5.923744e+02  -1.212574e-02  -3.097603e-02   6.649840e+05   1.803571e+06  -4.994458e-01  -8.275410e+05   3.175635e+00  -2.435672e+01   8.228515e+05   1.422080e+06  -1.548611e+05  -3.270973e+04  -9.512764e+04  -7.117273e+04   1.213742e+05   5.578229e+04  -9.423281e+04   1.884666e+05   4.819339e-07  -5.135992e-08  -7.218764e-08  -1.455249e-07  -5.783771e-08   2.908001e-07  -3.453918e-07  -5.094768e-08   1.475765e-07   4.819339e-07  -5.783771e-08   1.475765e-07  -9.844243e-08  -2.087897e-07   1.199262e-07   4.708251e-08   1.366021e-07   1.708739e-07   1.473420e+02   2.067960e+01   2.067966e+01   2.067963e+01   2.221961e+03   2.221961e+03   7.020446e-07   6.266714e-07   3.164641e-07  -8.313731e+01   3.822746e+01  -1.061486e+02  -8.111708e+01  -6.214625e+01   1.450725e-02   4.622733e-02  -9.988256e-01  -4.836641e-01   8.746142e-01   3.345373e-02   8.751335e-01   4.826107e-01   3.504674e-02  -6.369739e+00   4.346580e+00   2.041939e+01  -3.061969e-01  -3.914188e-01  -8.677758e-01   3.408056e-01  -8.962143e-01   2.839921e-01   8.888729e-01   2.087854e-01  -4.078158e-01  -1.130371e-07   7.260882e-08   6.121010e-07  -5.029367e-03  -9.099448e-01   4.146988e-01  -4.911650e-01  -3.589856e-01  -7.936538e-01   8.710520e-01  -2.076771e-01  -4.451276e-01
   5.000000e-03   1.500000e-02   5.253276e-03   1.524977e+03   7.377309e-01   3.310556e-01   3.223529e-01   3.465915e-01  -4.745355e-04   1.468973e-03   1.545876e-02  -2.983007e+02  -2.536354e+02  -2.909920e+02  -7.132388e+00   2.964401e+01  -3.485624e+01  -4.478429e+00  -1.045728e+00  -2.830701e+00   2.317554e+00  -7.012911e-01   9.569650e-01  -6.291361e+00   5.819059e+00   1.003595e+00   5.343601e+00  -1.147044e+00   6.114429e-01   1.679757e+00   3.671324e-01  -2.769976e+00  -5.494446e+00   5.838113e+00   9.244003e-01   5.362656e+00  -4.694537e-01   7.045617e-01   1.600563e+00   4.602515e-01  -1.992586e+00  -4.836503e+02   4.884480e+01  -1.250389e+00  -3.695713e+02   1.874844e+02  -1.066224e+00  -5.525145e+02  -5.913179e+02  -5.652023e-01  -6.535659e-01   2.624950e-01  -7.098930e-01  -5.572577e-01   4.678038e-01   6.860200e-01  -5.121675e-01  -8.439526e-01   1.594633e-01   8.050238e+02   5.995717e+02   6.606296e-02   1.664534e+02   1.700851e+00  -3.500004e-01   3.378859e+05   1.935961e+05   1.009880e+00   1.168995e+05   6.555397e+02   3.661948e+01   1.771610e+05   2.377956e+05  -6.555804e+01  -6.186121e+01  -2.857843e+00   6.418302e+01   1.489337e+01  -1.447063e+01  -4.342570e+01   8.785140e+01  -2.392137e-03   5.838930e-04   6.647346e-03   9.675427e-03  -3.900497e-04  -5.949150e-04   6.911175e-05   5.921228e-06   1.106725e-04  -2.392137e-03  -3.900497e-04   1.106725e-04   5.129660e-03   3.358229e-03  -2.944969e-04  -4.545767e-03   3.289117e-03  -3.004181e-04   4.922192e+02   6.564412e+00   1.073884e+01   1.006707e+01   1.031004e+03   1.031004e+03   1.201613e-02   9.013456e-03   7.946388e-03  -2.809760e+02   9.030926e+01  -3.296483e+02  -2.873295e+02  -2.259504e+02  -6.266756e-01   2.754721e-01   7.289670e-01  -7.178122e-01  -5.681944e-01  -4.023689e-01  -3.033535e-01   7.754162e-01  -5.538108e-01  -5.629975e+00  -2.787685e+00   6.280155e-02  -8.660349e-01   4.371126e-01  -2.427266e-01   3.086524e-01   8.547536e-02  -9.473266e-01  -3.933412e-01  -8.953360e-01  -2.089405e-01  -7.654591e-03   2.294474e-04   4.753629e-03   7.587854e-01  -5.499443e-01  -3.490071e-01  -1.919909e-02  -5.544803e-01   8.319753e-01  -6.510577e-01  -6.245901e-01  -4.312900e-01
   5.000000e-03   1.500000e-02   1.575983e-02   1.197247e+03   1.213411e+00   3.400274e-01   3.267209e-01   3.332517e-01   1.746033e-02   2.038497e-02   1.339035e-03  -1.011717e+02  -8.798201e+01  -1.335818e+02  -1.036623e+01  -9.143016e+00  -1.371175e+00   1.317501e+00   2.410785e+00  -1.003583e+00   1.805343e+00   2.461327e+00   6.915623e-01   1.317517e+00   1.874694e+00   2.448590e+00   1.735982e+00   2.410788e+00   5.674519e-01   2.474074e+00   8.156576e-01  -1.003588e+00   1.317509e+00   1.874693e+00   2.448590e+00   1.735982e+00   2.410781e+00   5.674518e-01   2.474073e+00   8.156575e-01  -1.003599e+00  -6.096816e+02  -5.896744e+01  -2.410418e-02  -7.429640e+02   1.052901e+03   2.455364e-03   3.660423e+02  -5.339257e+02   1.597908e-02  -8.959216e-01  -4.439683e-01  -1.471907e-02  -4.021121e-01   7.964853e-01   4.515718e-01   1.887600e-01  -4.104916e-01   8.921134e-01   9.140759e+02   1.083972e+03   1.571871e-02  -4.713379e+02   2.362434e-02   6.097877e-03   5.288466e+05   6.985766e+05  -4.995788e-01  -4.708778e+05   9.360324e+00  -2.262511e+00   4.091409e+05   6.874838e+05   6.406454e-02  -4.122059e+02  -1.610270e+03   1.341314e+01   2.649885e+01  -8.153370e+02  -6.741374e+02   1.349275e+03   6.683295e-08  -2.649552e-08   1.426984e-07  -2.185269e-08   1.899610e-08  -1.633057e-07  -1.607977e-07   1.830636e-07  -9.005200e-09   6.683295e-08   1.899610e-08  -9.005200e-09  -2.417411e-08  -9.049667e-09   9.878926e-09  -2.321416e-09   1.517480e-07  -1.731846e-07   1.902801e+02   5.309136e+00   5.309142e+00   5.309137e+00   1.566796e+03   1.566796e+03   3.353922e-07   8.022682e-08   3.256556e-07  -1.075785e+02   4.723115e+01  -1.363266e+02  -1.043290e+02  -8.207998e+01   2.745271e-01   8.602107e-02   9.577240e-01  -8.211838e-01  -4.972224e-01   2.800482e-01   5.002919e-01  -8.633483e-01  -6.586192e-02  -2.589351e+00   7.425423e-01   4.571512e+00   5.517624e-01  -5.582090e-02  -8.321312e-01   5.296026e-01  -7.473171e-01   4.012958e-01   6.442665e-01   6.621188e-01   3.827785e-01  -1.216864e-08   1.037561e-08   7.861688e-08   2.204505e-02  -2.865199e-01   9.578206e-01  -4.147697e-01  -8.743352e-01  -2.520000e-01   9.096594e-01  -3.917196e-01  -1.381145e-01
   1.500000e-02   5.000000e-03   5.253276e-03   1.713035e+03   5.469623e-01   3.322223e-01   3.198795e-01   3.478981e-01   4.586590e-03  -1.146285e-02   2.025054e-02  -2.895986e+02  -2.594209e+02  -3.707620e+02   1.831575e+01  -3.915442e+00  -4.823892e+01   8.608111e+01  -6.882923e+01   9.900659e+01   1.243276e+02  -1.288482e+02  -7.593367e+01   8.607432e+01   1.513225e+02  -6.224909e+01   9.746088e+01  -6.880970e+01   5.072432e+01  -1.953113e+02  -2.025599e+02   9.900493e+01   8.606615e+01   1.513230e+02  -6.224921e+01   9.746140e+01  -6.881702e+01   5.072296e+01  -1.953114e+02  -2.025613e+02   9.899446e+01  -7.207113e+00  -1.216969e+02  -2.038577e-02  -1.149869e+03   4.504169e+02   1.727962e-03   1.262953e+03  -8.442036e+02   1.515202e-02  -2.039287e-01  -4.245218e-01  -8.821532e-01  -8.860295e-01  -3.032070e-01   3.507382e-01   4.163710e-01  -8.531393e-01   3.143063e-01   1.546145e+03   6.353167e+02   2.335181e-02  -7.257671e+02   8.935081e-03  -4.796515e-03   1.458650e+06   4.651821e+05  -4.996759e-01  -7.916165e+05   8.648145e+00  -4.766103e+00   6.412772e+05   1.255298e+06  -7.130409e+02  -1.122992e+02  -9.007884e+01   2.837020e+02   2.542277e+02  -1.010803e+02  -3.051397e+02   6.112793e+02   1.607236e-07   2.210521e-04   1.556479e-04  -7.900011e-07   3.313231e-05   2.396181e-05   1.270895e-07   2.171991e-05  -5.066732e-06   1.607236e-07   3.313231e-05  -5.066732e-06   1.101311e-04   7.788748e-05   2.284086e-05   1.109211e-04   7.776039e-05   1.120950e-06   5.422053e+02   3.741387e+02   3.741224e+02   3.741201e+02   1.961547e+03   1.961547e+03   2.743361e-04   1.963606e-04   1.915798e-04  -3.065938e+02   1.340849e+02  -3.888270e+02  -2.958286e+02  -2.351260e+02   2.822439e-02  -3.526143e-01  -9.353430e-01  -9.462307e-01   2.922382e-01  -1.387236e-01   3.222589e-01   8.889657e-01  -3.254063e-01  -2.082143e+02  -6.508222e+01   3.895550e+02  -1.444419e-01  -7.813919e-01  -6.070941e-01  -8.000475e-01   4.532587e-01  -3.930401e-01   5.822891e-01   4.289327e-01  -6.906202e-01  -1.159006e-04  -1.378011e-05   1.579070e-04   7.563609e-01  -4.930394e-01  -4.299191e-01   8.025958e-02  -5.823044e-01   8.089993e-01   6.492123e-01   6.464006e-01   4.008612e-01
   1.500000e-02   5.000000e-03   1.575983e-02   1.115058e+03   1.376559e+00   3.330019e-01   3.613500e-01   3.056481e-01   1.096332e-02   3.956541e-03   2.199405e-03  -1.116893e+02  -1.194839e+02  -1.341589e+02  -2.302036e+00   1.376233e+00   1.545268e+01  -1.026888e+01  -1.393643e+01  -2.029242e+01  -4.931885e+00   1.603125e+01  -1.878684e+01  -1.026892e+01  -1.154351e+01   2.018599e+01   1.679790e+00  -1.393654e+01  -2.716626e+01   1.187665e+01  -1.040739e+01  -2.029228e+01  -1.026891e+01  -1.154351e+01   2.018599e+01   1.679790e+00  -1.393653e+01  -2.716627e+01   1.187665e+01  -1.040739e+01  -2.029227e+01  -1.124084e+03   1.271325e+03   1.067151e+01   5.422836e+02  -2.595662e+02  -1.056539e+01   1.155394e+03   5.020250e+02   3.861074e+00  -5.138168e-01   8.180651e-01  -2.583830e-01   3.000325e-01  -1.108088e-01  -9.474713e-01   8.037243e-01   5.643500e-01   1.885107e-01   1.668894e+03   1.352107e+03   7.980925e+00  -3.276169e+02  -5.549921e+00   1.207972e+01   1.446285e+06   9.678354e+05   1.197082e+02  -4.948990e+05  -6.632022e+03   9.123866e+03   8.047466e+05   1.024922e+06   4.994273e-01   4.927722e-01   4.997233e-01  -2.034182e-03   3.976826e-04   1.413319e-03   4.973076e-01   5.384276e-03  -1.619131e-07   1.277706e-07  -2.664414e-07   7.349714e-08  -5.362236e-07  -4.857433e-07   9.677757e-07   6.892978e-07   6.212893e-07  -1.619131e-07  -5.362236e-07   6.212893e-07   1.006339e-07   3.506671e-07   1.017772e-07   2.713672e-08  -6.171086e-07  -5.875205e-07   2.127004e+02   4.735374e+01   4.735375e+01   4.735374e+01   2.197381e+03   2.197381e+03   1.562094e-06   9.933068e-07   1.205603e-06  -1.217774e+02   3.359197e+01  -1.441045e+02  -1.121188e+02  -1.091088e+02  -7.373244e-02  -5.350883e-01   8.415724e-01  -8.911273e-01  -3.435005e-01  -2.964785e-01  -4.477227e-01   7.718082e-01   4.515046e-01  -3.313277e+01  -1.085319e+01  -5.117770e-01   4.360240e-01  -4.581119e-01  -7.746074e-01  -5.863383e-01  -7.975850e-01   1.416531e-01  -6.827081e-01   3.924178e-01  -6.163748e-01  -5.617601e-07  -2.836206e-07   7.685333e-07  -2.316328e-01   9.726873e-01  -1.502171e-02  -9.035973e-01  -2.094085e-01   3.737111e-01   3.603583e-01   1.001373e-01   9.274235e-01
   1.500000e-02   1.500000e-02   5.253276e-03   1.596827e+03   6.595413e-01   3.125057e-01   3.303651e-01   3.571292e-01  -1.728836e-03   1.007649e-02   2.060540e-02  -3.144082e+02  -3.493418e+02  -3.556584e+02  -4.058194e+01   1.808944e+01   2.118708e+01   7.527958e+00  -4.474105e+00   2.933801e+00  -4.148015e-01   2.794611e+00  -1.336977e+00   2.025283e+01  -6.011879e+01  -3.568044e+00  -6.160990e+01  -2.117106e+01   5.304186e+01  -3.193480e+00   5.293658e+01  -4.355788e+00   1.532041e+01  -6.075547e+01  -3.284273e+00  -6.224651e+01  -2.665151e+01   5.337416e+01  -2.909679e+00   5.326905e+01  -9.935335e+00   5.939131e+02  -2.649181e+02   4.560678e-03  -1.212506e+03   1.018715e+03  -4.874058e-03  -8.190558e+02   7.710920e+02   9.125969e-03   8.190112e-01   5.111146e-01  -2.607347e-01  -5.467442e-01   5.573537e-01  -6.248421e-01  -1.740445e-01   6.543078e-01   7.359279e-01   1.291904e+03   9.369125e+02   8.572444e-03  -9.081515e+02   4.811784e-03   5.585647e-03   1.246877e+06   8.512716e+05  -4.999361e-01  -1.012052e+06   5.718954e-01   4.317406e-01   6.993827e+05   1.380931e+06  -4.622052e+02  -2.656141e+03  -3.684524e+03  -1.108712e+03   1.305787e+03   3.128863e+03  -2.267623e+03   4.536247e+03   2.244178e-02  -1.172781e-02   1.202400e-02  -1.738031e-01   4.880103e-03   1.415972e-01  -3.417452e-02   5.913201e-03  -1.163394e-02   2.244178e-02   4.880103e-03  -1.163394e-02  -9.276548e-02  -1.107526e-02   7.375521e-02   8.103767e-02   2.309926e-02   6.784201e-02   5.934906e+02   1.029664e+01   1.180087e+02   1.196463e+02   2.048487e+03   2.048487e+03   2.289216e-01   1.702899e-01   1.529916e-01  -3.398028e+02   9.354313e+01  -3.953621e+02  -3.365517e+02  -2.874946e+02  -4.660785e-01  -6.745963e-01   5.724428e-01   2.664032e-01   5.099817e-01   8.178924e-01  -8.436825e-01   5.337027e-01  -5.797690e-02  -4.759855e+00   1.551307e+00   9.196203e+00   5.506246e-02   9.860967e-01   1.567846e-01  -4.611746e-01  -1.141541e-01   8.799357e-01   8.855993e-01  -1.207565e-01   4.484772e-01  -1.072516e-01  -9.023731e-03   1.319633e-01  -4.741169e-01  -7.228663e-01   5.026705e-01  -6.288247e-01  -1.216047e-01  -7.679790e-01   6.162732e-01  -6.802034e-01  -3.969013e-01
   1.500000e-02   1.500000e-02   1.575983e-02   1.193231e+03   1.220861e+00   3.295687e-01   3.120910e-01   3.583403e-01  -1.015339e-02  -9.363665e-03  -6.333301e-03  -7.721835e+01  -7.536030e+01  -1.002231e+02   4.996697e-01   1.204573e+01   4.096975e+00  -3.055129e-01   4.512232e+00   1.607418e+00   1.261989e-01   4.799435e+00   4.560353e+00  -3.055176e-01  -8.925068e-03   4.379667e+00   2.612896e-01   4.512279e+00   3.986250e+00   5.219240e+00   5.134502e+00   1.607401e+00  -3.055357e-01  -8.924951e-03   4.379670e+00   2.612897e-01   4.512261e+00   3.986251e+00   5.219243e+00   5.134503e+00   1.607377e+00  -6.868624e+02   6.663999e+02  -2.046772e-02  -8.595599e+02   5.223412e+02  -1.319020e-02   4.212961e+02  -3.533681e+02   1.196912e-02  -9.087298e-02   9.288243e-01   3.592039e-01  -9.737723e-01  -1.584258e-01   1.633060e-01   2.085898e-01  -3.349427e-01   9.188600e-01   9.873109e+02   6.545742e+02   1.491818e-03  -6.429081e+02   1.720085e-02  -2.093021e-02   6.940563e+05   4.208986e+05  -4.996319e-01  -5.277906e+05   1.521941e+01  -1.237949e+01   3.716515e+05   7.310363e+05  -2.901496e+04  -5.994339e+03  -1.898205e+05  -1.318875e+04  -7.421417e+04  -3.373346e+04  -7.494327e+04   1.498875e+05  -1.463963e-08  -2.621716e-07   1.123468e-07   5.604670e-08   3.159666e-07   5.345303e-08   6.868143e-08   2.614393e-07  -6.643393e-08  -1.463963e-08   3.159666e-07  -6.643393e-08  -1.030625e-07   9.051410e-08   1.574462e-07  -1.591091e-07   2.183268e-08  -1.039932e-07   1.483603e+02   1.057262e+01   1.057267e+01   1.057266e+01   1.493289e+03   1.493289e+03   5.146693e-07   4.378020e-07   2.705807e-07  -8.426726e+01   3.258558e+01  -1.057968e+02  -7.601256e+01  -7.099245e+01  -3.840014e-01  -1.169817e-01   9.158920e-01  -4.667719e-01   8.804511e-01  -8.324606e-02  -7.966599e-01  -4.594792e-01  -3.926982e-01  -5.737211e+00   1.854717e+00   9.696631e+00  -6.461154e-01  -3.286191e-01   6.888718e-01  -6.736839e-01   6.697578e-01  -3.123692e-01   3.587267e-01   6.659084e-01   6.541263e-01  -2.027309e-07   5.326225e-08   3.843617e-07   5.526814e-01   3.406819e-01  -7.605782e-01   8.145281e-01  -2.773687e-02   5.794606e-01  -1.763157e-01   9.397694e-01   2.928246e-01
