     VARIABLES=
              x              y              z      nomin_den    nomin_voidr      fabric_xx      fabric_yy      fabric_zz      fabric_xy      fabric_xz      fabric_yz       sigma_xx       sigma_yy       sigma_zz       sigma_xy       sigma_xz       sigma_yz    sigmaDot_xx    sigmaDot_yy    sigmaDot_zz    sigmaDot_xy    sigmaDot_xz    sigmaDot_yz       Oldro_xx       Oldro_xy       Oldro_xz       Oldro_yx       Oldro_yy       Oldro_yz       Oldro_zx       Oldro_zy       Oldro_zz       Trues_xx       Trues_xy       Trues_xz       Trues_yx       Trues_yy       Trues_yz       Trues_zx       Trues_zy       Trues_zz           F_xX           F_xY           F_xZ           F_yX           F_yY           F_yZ           F_zX           F_zY           F_zZ           R_xX           R_xY           R_xZ           R_yX           R_yY           R_yZ           R_zX           R_zY           R_zZ           U_xX           U_yY           U_zZ           U_xY           U_xZ           U_yZ       Green_xx       Green_yy       Green_zz       Green_xy       Green_xz       Green_yz      Green_vol      Green_shr       Euler_xx       Euler_yy       Euler_zz       Euler_xy       Euler_xz       Euler_yz      Euler_vol      Euler_shr           l_xx           l_xy           l_xz           l_yx           l_yy           l_yz           l_zx           l_zy           l_zz           d_xx           d_yy           d_zz           d_xy           d_xz           d_yz           w_xy           w_xz           w_yz     norm_sigma  norm_sigmaDot     norm_Oldro     norm_Trues         norm_F         norm_U         norm_l         norm_d         norm_w              p              q        sigma_1        sigma_2        sigma_3     sigma_1_v1     sigma_1_v2     sigma_1_v3     sigma_2_v1     sigma_2_v2     sigma_2_v3     sigma_3_v1     sigma_3_v2     sigma_3_v3     sigmaDot_1     sigmaDot_2     sigmaDot_3  sigmaDot_1_v1  sigmaDot_1_v2  sigmaDot_1_v3  sigmaDot_2_v1  sigmaDot_2_v2  sigmaDot_2_v3  sigmaDot_3_v1  sigmaDot_3_v2  sigmaDot_3_v3            d_1            d_2            d_3         d_1_v1         d_1_v2         d_1_v3         d_2_v1         d_2_v2         d_2_v3         d_3_v1         d_3_v2         d_3_v3
ZONE I=2, J=2, K=2, DATAPACKING=POINT, STRANDID=5, SOLUTIONTIME=59
   5.000000e-03   5.000000e-03   5.253276e-03   1.575477e+03   6.820305e-01   3.407018e-01   3.072183e-01   3.520799e-01   6.664472e-03  -4.641995e-04   5.754142e-04  -3.169191e+02  -2.446228e+02  -3.732511e+02  -2.423279e+01   2.403524e+01  -2.610410e+01  -1.314957e+01   5.238744e+00   5.331277e+00  -1.271924e+01   1.080615e+01  -1.750039e+00  -2.283666e+01  -1.960756e+01   1.330899e+01  -1.666874e+01   3.620219e+00  -1.877255e+00   9.500669e+00  -5.705403e-01   5.320491e+00  -1.743381e+01  -1.919444e+01   1.289924e+01  -1.625562e+01   7.790559e+00  -1.432233e+00   9.090915e+00  -1.255146e-01   1.168369e+01   5.030720e+02  -8.535372e+02  -2.700995e-03  -3.341363e+02  -1.004723e+03   2.816307e-03  -8.459203e+01   1.684487e+02   1.988315e-02   7.723670e-01  -6.103437e-01   1.758687e-01  -6.221183e-01  -7.827675e-01   1.561620e-02  -1.281331e-01   1.214726e-01   9.842898e-01   6.072676e+02   1.327877e+03   1.913974e-02  -5.577142e+01  -6.385924e-03   1.859279e-03   1.859417e+05   8.831836e+05  -4.997947e-01  -5.396288e+04  -1.990891e+00   1.412541e+00   3.563749e+05   5.412346e+05  -4.172026e+01   1.673912e-01  -1.321848e+03  -3.747371e+00  -2.362834e+02  -2.097197e+01  -4.544669e+02   9.099337e+02  -1.507416e-02  -2.090667e-03   6.487888e-04  -1.418904e-02  -1.967771e-03   6.106001e-04   1.518967e-04   2.061478e-05  -6.108614e-06  -1.507416e-02  -1.967771e-03  -6.108614e-06  -8.139855e-03   4.003428e-04   3.156075e-04   6.049188e-03   2.484460e-04   2.949927e-04   5.507151e+02   2.836249e+01   3.868426e+01   3.721442e+01   1.462277e+03   1.462277e+03   2.091936e-02   1.908237e-02   8.572213e-03  -3.115977e+02   1.342077e+02  -3.841675e+02  -3.206351e+02  -2.299904e+02  -2.931711e-01   1.263671e-01   9.476719e-01  -9.015618e-01  -3.664221e-01  -2.300461e-01   3.181777e-01  -9.218276e-01   2.213521e-01  -2.074776e+01   4.222017e+00   1.394620e+01   8.836896e-01   3.704859e-01  -2.860645e-01   1.756298e-02  -6.369675e-01  -7.706906e-01  -4.677438e-01   6.760271e-01  -5.693884e-01  -1.898396e-02   4.497685e-07   1.935468e-03   9.016007e-01   4.317751e-01  -2.620006e-02  -4.858115e-02   4.088612e-02  -9.979821e-01  -4.298326e-01   9.010541e-01   5.783908e-02
   5.000000e-03   5.000000e-03   1.575983e-02   1.087368e+03   1.437076e+00   3.564787e-01   3.196542e-01   3.238671e-01  -1.130125e-02   2.350287e-02   3.392484e-04  -6.731104e+01  -7.668930e+01  -1.060264e+02   8.026153e+00   7.491732e-01   1.505924e+00   3.443673e+01   1.054924e+01   3.453163e+00  -1.218845e+01  -3.286694e+01   2.922770e+00   3.443692e+01  -1.266685e+01  -3.201275e+01  -1.171017e+01   1.054925e+01   5.648456e+00  -3.372117e+01   1.971346e-01   3.453212e+00   3.443681e+01  -1.266683e+01  -3.201275e+01  -1.171016e+01   1.054913e+01   5.648458e+00  -3.372117e+01   1.971371e-01   3.453038e+00   4.045325e+02  -1.217120e+03   1.976895e-02  -1.073970e+03   1.174091e+03  -1.298042e-03  -1.136228e+02  -8.644495e+02   2.675489e-02   6.245680e-03  -6.724523e-01  -7.401141e-01  -8.660895e-01   3.663227e-01  -3.401420e-01  -4.998499e-01  -6.431295e-01   5.801160e-01   9.894754e+02   1.804504e+03   1.331181e-03  -5.923744e+02  -1.212574e-02  -3.097603e-02   6.649840e+05   1.803571e+06  -4.994458e-01  -8.275411e+05   3.175638e+00  -2.435673e+01   8.228515e+05   1.422080e+06  -1.548175e+05  -3.270053e+04  -9.510089e+04  -7.115272e+04   1.213401e+05   5.576660e+04  -9.420631e+04   1.884136e+05   1.340723e-06  -4.482158e-07  -6.032775e-07  -2.050185e-07   6.110748e-08   3.010532e-07   6.055264e-07  -1.653383e-08   2.336204e-07   1.340723e-06   6.110748e-08   2.336204e-07  -3.266171e-07   1.124424e-09   1.422597e-07  -1.215987e-07  -6.044019e-07   1.587935e-07   1.476080e+02   6.164858e+01   6.164874e+01   6.164864e+01   2.221961e+03   2.221961e+03   1.708887e-06   1.452476e-06   9.003370e-07  -8.334224e+01   3.775563e+01  -1.061066e+02  -8.126063e+01  -6.265949e+01   9.231296e-03   4.861074e-02  -9.987751e-01  -4.998691e-01   8.652890e-01   3.749382e-02   8.660518e-01   4.989107e-01   3.228675e-02  -1.948322e+01   9.760526e+00   5.816183e+01   5.507726e-01   2.094519e-01   8.079477e-01   5.951528e-02   9.556822e-01  -2.883217e-01   8.325308e-01  -2.068849e-01  -5.138980e-01  -7.900394e-08   2.943033e-07   1.420152e-06   2.051974e-01   8.905466e-01  -4.059812e-01  -1.203434e-01  -3.887024e-01  -9.134702e-01   9.712937e-01  -2.362989e-01  -2.741071e-02
   5.000000e-03   1.500000e-02   5.253276e-03   1.524977e+03   7.377309e-01   3.310512e-01   3.223614e-01   3.465874e-01  -4.619373e-04   1.490849e-03   1.546824e-02  -2.983175e+02  -2.536574e+02  -2.910435e+02  -7.133843e+00   2.963471e+01  -3.484401e+01   5.661338e-01  -1.118076e+00  -1.360000e-01   3.057691e+00   2.110344e-01  -3.902683e-01   3.252516e+00  -1.395108e+00  -1.999480e+00  -1.626160e+00  -1.048003e+00  -3.328912e-02  -1.843000e+00   1.969103e-01  -1.967084e-01   1.986119e+00  -1.425392e+00  -1.873677e+00  -1.656444e+00  -2.124811e+00  -1.812063e-01  -1.717196e+00   4.899281e-02  -1.432226e+00  -4.847013e+02   4.784501e+01  -1.250749e+00  -3.693065e+02   1.877439e+02  -1.065450e+00  -5.606071e+02  -5.993466e+02  -5.650254e-01  -6.529498e-01   2.638343e-01  -7.099634e-01  -5.568042e-01   4.682350e-01   6.860940e-01  -5.134449e-01  -8.432956e-01   1.588299e-01   8.099579e+02   6.059578e+02   6.724433e-02   1.719544e+02   1.700033e+00  -3.523882e-01   3.428010e+05   1.983761e+05   1.009406e+00   1.217362e+05   6.582374e+02   3.938607e+01   1.803927e+05   2.434218e+05  -6.310185e+01  -5.954381e+01  -2.706432e+00   6.179723e+01   1.428058e+01  -1.387539e+01  -4.178403e+01   8.456806e+01   3.836813e-03  -6.511003e-04  -6.858415e-03  -1.404810e-02   5.126826e-04   1.494627e-04  -9.476308e-06  -7.460253e-06  -1.043661e-04   3.836813e-03   5.126826e-04  -1.043661e-04  -7.349599e-03  -3.433946e-03   7.100124e-05   6.698498e-03  -3.424469e-03   7.846149e-05   4.922684e+02   4.554906e+00   4.872477e+00   4.667009e+00   1.040365e+03   1.040365e+03   1.611919e-02   1.210876e-02   1.063983e-02  -2.810062e+02   9.028967e+01  -3.296700e+02  -2.873546e+02  -2.259939e+02  -6.265084e-01   2.754321e-01   7.291258e-01  -7.179610e-01  -5.680278e-01  -4.023387e-01  -3.033468e-01   7.755524e-01  -5.536237e-01  -3.384049e+00  -8.970239e-02   2.785809e+00   5.986471e-01  -7.919117e-01  -1.204054e-01   5.447055e-02  -1.097218e-01   9.924687e-01  -7.991587e-01  -6.006970e-01  -2.254877e-02  -6.143353e-03  -4.603840e-05   1.043452e-02   6.305636e-01   6.925308e-01   3.504149e-01   2.426645e-02   4.336736e-01  -9.007432e-01   7.757581e-01  -5.764792e-01  -2.566535e-01
   5.000000e-03   1.500000e-02   1.575983e-02   1.197247e+03   1.213411e+00   3.400571e-01   3.266733e-01   3.332696e-01   1.724919e-02   2.008994e-02   1.382899e-03  -1.011688e+02  -8.798250e+01  -1.335962e+02  -1.033074e+01  -9.162732e+00  -1.339370e+00  -1.694027e+01   1.270437e+00   9.061122e+00   3.215609e+01   8.084285e+00   3.918798e+00  -1.694027e+01   6.504645e+01   1.513125e+01  -7.342312e-01   1.270437e+00  -2.161386e+00   1.037354e+00   9.998972e+00   9.061156e+00  -1.694028e+01   6.504645e+01   1.513125e+01  -7.342325e-01   1.270426e+00  -2.161386e+00   1.037352e+00   9.998972e+00   9.061139e+00  -5.672751e+02  -1.808251e+02  -2.397058e-02  -7.769519e+02   1.163249e+03   2.503275e-03   4.112124e+02  -6.681100e+02   1.619679e-02  -8.734935e-01  -4.848167e-01  -4.429314e-02  -4.413452e-01   7.501873e-01   4.923752e-01   2.054836e-01  -4.496351e-01   8.692553e-01   9.229125e+02   1.260727e+03   1.637343e-02  -4.927305e+02   2.316152e-02   6.216620e-03   5.472750e+05   9.161081e+05  -4.995784e-01  -5.379731e+05   9.156657e+00  -1.787410e+00   4.877942e+05   8.180320e+05  -3.152879e+00  -4.517045e+02  -1.408905e+03   4.064293e+01   7.175224e+01  -7.983353e+02  -6.212541e+02   1.243508e+03   1.887952e-09   1.576563e-07   2.008045e-08   9.053626e-10   2.923037e-09  -3.037681e-09   1.288024e-07  -6.682564e-08   1.222235e-07   1.887952e-09   2.923037e-09   1.222235e-07   7.928081e-08   7.444141e-08  -3.493166e-08   7.837545e-08  -5.436096e-08   3.189398e-08   1.902864e+02   7.026343e+01   7.026345e+01   7.026345e+01   1.710780e+03   1.710780e+03   2.475382e-07   2.025958e-07   1.422326e-07  -1.075825e+02   4.722708e+01  -1.363418e+02  -1.042999e+02  -8.210582e+01   2.745370e-01   8.517400e-02   9.577969e-01  -8.214246e-01  -4.970493e-01   2.796492e-01   4.998911e-01  -8.635319e-01  -6.649440e-02  -1.706961e+01  -5.441786e+00   1.590269e+01   9.945905e-01   7.751627e-02  -6.914498e-02   1.029952e-01  -8.223421e-01   5.595940e-01   1.348319e-02   5.636884e-01   8.258775e-01  -1.038854e-07   7.308713e-08   1.578327e-07  -7.036121e-01   6.298558e-01   3.289556e-01  -5.578866e-01  -7.763768e-01   2.932603e-01  -4.401052e-01  -2.282154e-02  -8.976562e-01
   1.500000e-02   5.000000e-03   5.253276e-03   1.713035e+03   5.469623e-01   3.322139e-01   3.198893e-01   3.478968e-01   4.588334e-03  -1.145744e-02   2.025564e-02  -2.894093e+02  -2.592382e+02  -3.701333e+02   1.830717e+01  -3.970446e+00  -4.833175e+01   2.556367e+01   2.251784e+01  -4.842087e+01   9.466166e+01  -5.116008e+01  -3.462824e+01   2.556465e+01   9.401333e+01   1.623095e+01   9.528997e+01   2.251510e+01   1.425104e+02  -1.185807e+02  -2.117571e+02  -4.842178e+01   2.556729e+01   9.401316e+01   1.623098e+01   9.528980e+01   2.251746e+01   1.425109e+02  -1.185806e+02  -2.117567e+02  -4.841840e+01  -7.217069e+00  -1.216873e+02  -2.038561e-02  -1.149858e+03   4.504041e+02   1.727965e-03   1.262928e+03  -8.441772e+02   1.515201e-02  -2.039283e-01  -4.245143e-01  -8.821570e-01  -8.860301e-01  -3.032090e-01   3.507348e-01   4.163699e-01  -8.531424e-01   3.142995e-01   1.546126e+03   6.352947e+02   2.335163e-02  -7.257461e+02   8.935012e-03  -4.796773e-03   1.458605e+06   4.651529e+05  -4.996759e-01  -7.915787e+05   8.648050e+00  -4.766013e+00   6.412526e+05   1.255249e+06  -7.130580e+02  -1.122988e+02  -9.007633e+01   2.837049e+02   2.542272e+02  -1.010787e+02  -3.051444e+02   6.112887e+02   7.538119e-09  -3.395422e-05  -3.429615e-05   1.390881e-06  -4.010636e-06  -6.394990e-06   4.079577e-07   2.975202e-05  -5.119106e-06   7.538119e-09  -4.010636e-06  -5.119106e-06  -1.628167e-05  -1.694410e-05   1.167852e-05  -1.767255e-05  -1.735205e-05  -1.807351e-05   5.416038e+02   3.176482e+02   3.176460e+02   3.176456e+02   1.961509e+03   1.961509e+03   5.744201e-05   3.767567e-05   4.336045e-05  -3.062603e+02   1.338666e+02  -3.883114e+02  -2.956343e+02  -2.348352e+02   2.803806e-02  -3.539664e-01  -9.348378e-01  -9.463773e-01   2.917094e-01  -1.388368e-01   3.218445e-01   8.886019e-01  -3.268068e-01  -2.317291e+02  -5.606419e+01   2.874540e+02  -1.390115e-01  -6.024912e-01  -7.859263e-01  -8.562540e-01   4.718290e-01  -2.102534e-01   4.974987e-01   6.437249e-01  -5.814751e-01  -2.032647e-05  -1.611794e-05   2.732220e-05   7.464491e-01   3.321573e-01   5.766154e-01   1.327462e-01   7.747712e-01  -6.181488e-01   6.520677e-01  -5.379601e-01  -5.342347e-01
   1.500000e-02   5.000000e-03   1.575983e-02   1.115058e+03   1.376559e+00   3.330019e-01   3.613500e-01   3.056481e-01   1.096332e-02   3.956545e-03   2.199395e-03  -1.120157e+02  -1.197780e+02  -1.337030e+02  -1.533860e+00   9.415739e-01   1.521866e+01  -3.264865e+01  -1.185359e+01  -2.126982e-01  -2.530882e+01  -2.184311e+01   6.068383e+00  -3.264870e+01  -2.486848e+01  -8.018676e+00  -2.574950e+01  -1.185353e+01   6.315851e+00  -3.566827e+01   5.821369e+00  -2.125009e-01  -3.264881e+01  -2.486849e+01  -8.018675e+00  -2.574950e+01  -1.185365e+01   6.315866e+00  -3.566827e+01   5.821384e+00  -2.126331e-01  -1.124083e+03   1.271325e+03   1.067151e+01   5.422837e+02  -2.595664e+02  -1.056540e+01   1.155394e+03   5.020246e+02   3.861076e+00  -5.138166e-01   8.180652e-01  -2.583831e-01   3.000325e-01  -1.108089e-01  -9.474713e-01   8.037244e-01   5.643498e-01   1.885107e-01   1.668894e+03   1.352107e+03   7.980928e+00  -3.276168e+02  -5.549920e+00   1.207973e+01   1.446285e+06   9.678349e+05   1.197083e+02  -4.948989e+05  -6.632022e+03   9.123867e+03   8.047466e+05   1.024922e+06   4.994273e-01   4.927722e-01   4.997233e-01  -2.034181e-03   3.976824e-04   1.413318e-03   4.973076e-01   5.384272e-03  -2.132804e-07  -2.343792e-06  -3.729778e-06   5.050747e-07   3.118430e-07   6.731356e-07   8.817503e-07   1.285926e-06   8.902102e-07  -2.132804e-07   3.118430e-07   8.902102e-07  -9.193584e-07  -1.424014e-06   9.795307e-07  -1.424433e-06  -2.305764e-06  -3.063950e-07   2.126981e+02   6.243568e+01   6.243613e+01   6.243622e+01   2.197381e+03   2.197381e+03   4.845525e-06   2.932616e-06   3.857314e-06  -1.218322e+02   3.266146e+01  -1.435594e+02  -1.122091e+02  -1.097282e+02  -5.136156e-02  -5.406488e-01   8.396790e-01  -9.413203e-01  -2.546359e-01  -2.215326e-01  -3.335838e-01   8.017851e-01   4.958452e-01  -6.290729e+01  -1.350811e+01   3.170046e+01   8.231790e-01   3.656501e-01   4.343688e-01  -7.296046e-02   8.268067e-01  -5.577343e-01  -5.630746e-01   4.274234e-01   7.072879e-01  -1.231795e-06  -4.091659e-07   2.629734e-06   8.538853e-01   2.049870e-01   4.783933e-01   9.512000e-02   8.422267e-01  -5.306660e-01   5.116952e-01  -4.986327e-01  -6.996667e-01
   1.500000e-02   1.500000e-02   5.253276e-03   1.596827e+03   6.595413e-01   3.125532e-01   3.303217e-01   3.571251e-01  -1.617369e-03   1.041719e-02   2.069613e-02  -3.140740e+02  -3.488720e+02  -3.552882e+02  -4.053585e+01   1.807657e+01   2.116716e+01   3.105827e+01   3.466024e+01   3.586735e+01   1.565622e+00   9.175261e-01  -1.864919e+00   5.673177e+01  -1.260493e+01  -2.425930e+01  -1.039584e+01   5.179153e+01  -6.493958e+01  -2.377483e+01  -6.519508e+01   5.160962e+01   3.151029e+01  -1.586027e+01  -2.280777e+01  -1.365091e+01   2.377563e+01  -6.324020e+01  -2.232311e+01  -6.349483e+01   2.307847e+01   5.910967e+02  -2.624442e+02   4.541333e-03  -1.217592e+03   1.024002e+03  -4.815847e-03  -8.186899e+02   7.707763e+02   9.124408e-03   8.181879e-01   5.133759e-01  -2.588703e-01  -5.477485e-01   5.591447e-01  -6.223574e-01  -1.747573e-01   6.510011e-01   7.386863e-01   1.293634e+03   9.396090e+02   8.561637e-03  -9.103231e+02   4.758979e-03   5.578655e-03   1.251088e+06   8.557762e+05  -4.999365e-01  -1.016487e+06   5.390204e-01   4.547968e-01   7.022880e+05   1.386708e+06  -4.567646e+02  -2.641715e+03  -3.721585e+03  -1.099178e+03   1.304599e+03   3.136009e+03  -2.273355e+03   4.547710e+03   3.805309e-02   1.156327e-02  -2.304288e-02  -7.366831e-02   2.275954e-02  -1.706268e-01  -4.884886e-02  -2.975048e-03   1.949161e-02   3.805309e-02   2.275954e-02   1.949161e-02  -3.105252e-02  -3.594587e-02  -8.680094e-02   4.261579e-02   1.290299e-02  -8.382589e-02   5.928068e+02   5.889437e+01   1.358406e+02   1.076017e+02   2.052737e+03   2.052737e+03   1.998655e-01   1.480793e-01   1.342339e-01  -3.394114e+02   9.343251e+01  -3.949033e+02  -3.361680e+02  -2.871630e+02  -4.661789e-01  -6.740611e-01   5.729912e-01   2.671176e-01   5.102029e-01   8.175214e-01  -8.434011e-01   5.341673e-01  -5.779226e-02   2.905674e+01   3.508674e+01   3.744238e+01   8.223267e-01  -4.929291e-01  -2.842528e-01   5.503771e-01   5.622245e-01   6.172428e-01   1.444430e-01   6.640215e-01  -7.336291e-01  -8.409575e-02   5.629904e-02   1.081009e-01   3.619201e-01   6.488723e-01   6.693120e-01   9.307187e-01  -2.920984e-01  -2.200936e-01  -5.269236e-02  -7.025975e-01   7.096339e-01
   1.500000e-02   1.500000e-02   1.575983e-02   1.193231e+03   1.220861e+00   3.295687e-01   3.120910e-01   3.583403e-01  -1.015338e-02  -9.363665e-03  -6.333302e-03  -7.722276e+01  -7.539776e+01  -1.001986e+02   4.722459e-01   1.205848e+01   4.089086e+00   2.031285e+00   3.252751e+00   7.559121e+00   5.682137e-01   9.638092e-01   1.645787e+00   2.031291e+00   6.941855e-02   1.897349e-02   1.067030e+00   3.252768e+00   1.644665e+00   1.908656e+00   1.646864e+00   7.559151e+00   2.031268e+00   6.941869e-02   1.897716e-02   1.067030e+00   3.252745e+00   1.644666e+00   1.908660e+00   1.646866e+00   7.559121e+00  -6.868624e+02   6.663999e+02  -2.046772e-02  -8.595599e+02   5.223412e+02  -1.319020e-02   4.212961e+02  -3.533681e+02   1.196912e-02  -9.087298e-02   9.288243e-01   3.592039e-01  -9.737723e-01  -1.584258e-01   1.633060e-01   2.085898e-01  -3.349427e-01   9.188600e-01   9.873109e+02   6.545742e+02   1.491818e-03  -6.429081e+02   1.720085e-02  -2.093021e-02   6.940563e+05   4.208986e+05  -4.996319e-01  -5.277906e+05   1.521941e+01  -1.237949e+01   3.716515e+05   7.310363e+05  -2.902746e+04  -5.996924e+03  -1.899023e+05  -1.319443e+04  -7.424616e+04  -3.374801e+04  -7.497557e+04   1.499521e+05   4.467446e-08   1.277155e-07   2.216411e-08   1.116722e-09   1.041967e-07  -8.294899e-08   7.963905e-08  -1.658074e-07   1.554461e-07   4.467446e-08   1.041967e-07   1.554461e-07   6.441612e-08   5.090158e-08  -1.243782e-07   6.329940e-08  -2.873747e-08   4.142918e-08   1.483665e+02   9.058184e+00   9.058211e+00   9.058174e+00   1.493289e+03   1.493289e+03   3.074655e-07   2.853716e-07   1.144468e-07  -8.427302e+01   3.256072e+01  -1.057871e+02  -7.601793e+01  -7.101407e+01  -3.845902e-01  -1.172256e-01   9.156138e-01  -4.614338e-01   8.834962e-01  -8.070491e-02  -7.994806e-01  -4.535334e-01  -3.938758e-01   1.248448e+00   2.792610e+00   8.802099e+00   9.229683e-01  -3.334970e-01  -1.921178e-01  -2.364850e-01  -8.852300e-01   4.005530e-01   3.036516e-01   3.242648e-01   8.959063e-01  -6.096385e-08   1.084611e-07   2.568200e-07  -6.136188e-01   6.135847e-01   4.969767e-01  -7.895743e-01  -4.715005e-01  -3.927591e-01   6.666179e-03   6.334043e-01  -7.737923e-01
