     VARIABLES=
              x              y              z      nomin_den    nomin_voidr      fabric_xx      fabric_yy      fabric_zz      fabric_xy      fabric_xz      fabric_yz       sigma_xx       sigma_yy       sigma_zz       sigma_xy       sigma_xz       sigma_yz    sigmaDot_xx    sigmaDot_yy    sigmaDot_zz    sigmaDot_xy    sigmaDot_xz    sigmaDot_yz       Oldro_xx       Oldro_xy       Oldro_xz       Oldro_yx       Oldro_yy       Oldro_yz       Oldro_zx       Oldro_zy       Oldro_zz       Trues_xx       Trues_xy       Trues_xz       Trues_yx       Trues_yy       Trues_yz       Trues_zx       Trues_zy       Trues_zz           F_xX           F_xY           F_xZ           F_yX           F_yY           F_yZ           F_zX           F_zY           F_zZ           R_xX           R_xY           R_xZ           R_yX           R_yY           R_yZ           R_zX           R_zY           R_zZ           U_xX           U_yY           U_zZ           U_xY           U_xZ           U_yZ       Green_xx       Green_yy       Green_zz       Green_xy       Green_xz       Green_yz      Green_vol      Green_shr       Euler_xx       Euler_yy       Euler_zz       Euler_xy       Euler_xz       Euler_yz      Euler_vol      Euler_shr           l_xx           l_xy           l_xz           l_yx           l_yy           l_yz           l_zx           l_zy           l_zz           d_xx           d_yy           d_zz           d_xy           d_xz           d_yz           w_xy           w_xz           w_yz     norm_sigma  norm_sigmaDot     norm_Oldro     norm_Trues         norm_F         norm_U         norm_l         norm_d         norm_w              p              q        sigma_1        sigma_2        sigma_3     sigma_1_v1     sigma_1_v2     sigma_1_v3     sigma_2_v1     sigma_2_v2     sigma_2_v3     sigma_3_v1     sigma_3_v2     sigma_3_v3     sigmaDot_1     sigmaDot_2     sigmaDot_3  sigmaDot_1_v1  sigmaDot_1_v2  sigmaDot_1_v3  sigmaDot_2_v1  sigmaDot_2_v2  sigmaDot_2_v3  sigmaDot_3_v1  sigmaDot_3_v2  sigmaDot_3_v3            d_1            d_2            d_3         d_1_v1         d_1_v2         d_1_v3         d_2_v1         d_2_v2         d_2_v3         d_3_v1         d_3_v2         d_3_v3
ZONE I=2, J=2, K=2, DATAPACKING=POINT, STRANDID=5, SOLUTIONTIME=76
   5.000000e-03   5.000000e-03   5.253276e-03   1.575477e+03   6.820305e-01   3.406651e-01   3.072880e-01   3.520469e-01   6.655986e-03  -4.441606e-04   6.088298e-04  -3.165164e+02  -2.444486e+02  -3.727094e+02  -2.426125e+01   2.415098e+01  -2.611916e+01  -1.520499e+01  -7.946812e+00   8.723261e+00   1.685321e+01  -1.133840e+01   2.721621e-01  -8.384672e+00   2.186185e+01  -1.271762e+01   1.915987e+01  -6.862017e+00  -3.702987e-01  -1.064740e+01   2.353943e-01   8.713269e+00  -1.216362e+01   2.157219e+01  -1.242927e+01   1.887021e+01  -9.780536e+00  -6.821409e-01  -1.035906e+01  -7.644713e-02   4.263418e+00   5.034267e+02  -8.520898e+02  -2.728092e-03  -3.383951e+02  -1.008488e+03   2.791398e-03  -8.289551e+01   1.699618e+02   1.989648e-02   7.728488e-01  -6.101241e-01   1.745089e-01  -6.220920e-01  -7.827263e-01   1.846844e-02  -1.253247e-01   1.228339e-01   9.844824e-01   6.099745e+02   1.330128e+03   1.916321e-02  -5.246435e+01  -6.338430e-03   1.923537e-03   1.874102e+05   8.859960e+05  -4.997944e-01  -5.089311e+04  -1.983659e+00   1.445565e+00   3.578019e+05   5.423560e+05  -4.096813e+01   3.587572e-02  -1.319126e+03  -4.387064e+00  -2.339283e+02  -2.474812e+01  -4.533529e+02   9.077058e+02   1.062600e-02   1.475282e-03  -4.580446e-04   9.507608e-03   1.318908e-03  -4.086694e-04   1.393328e-04   1.897561e-05  -5.705987e-06   1.062600e-02   1.318908e-03  -5.705987e-06   5.491445e-03  -1.593559e-04  -1.948469e-04  -4.016163e-03  -2.986887e-04  -2.138225e-04   5.500529e+02   3.466617e+01   3.624431e+01   3.668108e+01   1.465201e+03   1.465201e+03   1.440899e-02   1.323216e-02   5.703420e-03  -3.112248e+02   1.340276e+02  -3.837096e+02  -3.202291e+02  -2.297357e+02  -2.948400e-01   1.262804e-01   9.471656e-01  -9.005893e-01  -3.680378e-01  -2.312729e-01   3.193875e-01  -9.211957e-01   2.222390e-01  -2.941360e+01   9.116177e-01   1.407345e+01  -7.877463e-01   5.748030e-01  -2.214889e-01  -4.173731e-01  -7.624918e-01  -4.943743e-01  -4.530513e-01  -2.969980e-01   8.405574e-01  -1.235396e-03   2.329491e-07   1.317436e-02   4.174660e-01  -9.043049e-01  -8.918939e-02   5.304113e-02  -7.373382e-02   9.958664e-01   9.071432e-01   4.204711e-01  -1.718399e-02
   5.000000e-03   5.000000e-03   1.575983e-02   1.087368e+03   1.437076e+00   3.546013e-01   3.200316e-01   3.253672e-01  -9.976435e-03   2.483709e-02   3.457356e-03  -6.660991e+01  -7.674478e+01  -1.060730e+02   8.021917e+00   9.627283e-01   1.477065e+00  -4.918153e+01  -1.864164e+01  -3.590764e+01   1.392495e+01   4.044579e+01  -1.692045e+01  -4.918177e+01   1.320442e+01   3.831489e+01   1.464567e+01  -1.864168e+01  -1.710195e+01   4.257682e+01  -1.673910e+01  -3.590771e+01  -4.918162e+01   1.320440e+01   3.831489e+01   1.464565e+01  -1.864150e+01  -1.710196e+01   4.257682e+01  -1.673910e+01  -3.590746e+01   4.045324e+02  -1.217120e+03   1.976895e-02  -1.073970e+03   1.174091e+03  -1.298039e-03  -1.136228e+02  -8.644495e+02   2.675489e-02   6.245659e-03  -6.724523e-01  -7.401141e-01  -8.660895e-01   3.663228e-01  -3.401420e-01  -4.998499e-01  -6.431294e-01   5.801160e-01   9.894754e+02   1.804504e+03   1.331180e-03  -5.923744e+02  -1.212574e-02  -3.097603e-02   6.649840e+05   1.803571e+06  -4.994458e-01  -8.275410e+05   3.175635e+00  -2.435672e+01   8.228515e+05   1.422080e+06  -1.548393e+05  -3.270513e+04  -9.511426e+04  -7.116272e+04   1.213571e+05   5.577444e+04  -9.421956e+04   1.884401e+05  -1.763240e-06   6.943345e-07   5.967136e-07   4.250241e-07  -2.572674e-07  -7.179412e-07   3.329116e-08  -5.135186e-08  -3.110149e-07  -1.763240e-06  -2.572674e-07  -3.110149e-07   5.596793e-07   3.150024e-07  -3.846465e-07   1.346552e-07   2.817112e-07  -3.332947e-07   1.473535e+02   9.109343e+01   9.109372e+01   9.109349e+01   2.221961e+03   2.221961e+03   2.193155e-06   2.095894e-06   6.458770e-07  -8.314256e+01   3.824240e+01  -1.061556e+02  -8.113842e+01  -6.213370e+01   1.496756e-02   4.608098e-02  -9.988256e-01  -4.847811e-01   8.740105e-01   3.305810e-02   8.745074e-01   4.837170e-01   3.542100e-02  -9.222947e+01  -1.275820e+01   1.256868e+00  -7.212109e-01   2.869532e-01   6.304861e-01   3.595616e-01   9.330259e-01  -1.334694e-02  -5.920898e-01   2.170726e-01  -7.760858e-01  -2.051866e-06  -4.077012e-07   1.280457e-07   9.112493e-01  -3.354162e-01  -2.389993e-01   3.891692e-01   5.113092e-01   7.662312e-01   1.348038e-01   7.912388e-01  -5.964638e-01
   5.000000e-03   1.500000e-02   5.253276e-03   1.524977e+03   7.377309e-01   3.310523e-01   3.223596e-01   3.465881e-01  -4.643492e-04   1.483725e-03   1.546684e-02  -2.983385e+02  -2.536589e+02  -2.909939e+02  -7.119310e+00   2.964358e+01  -3.485327e+01   1.982124e+00   9.592432e-01   3.516766e+00   1.772095e+00   2.316960e-01  -5.661231e-01   4.593555e+00  -2.797657e+00  -1.350515e+00  -2.538464e+00   1.014341e+00  -2.829182e-01  -2.086540e+00  -8.728369e-04   3.458360e+00   3.351943e+00  -2.827286e+00  -1.227145e+00  -2.568093e+00  -4.132573e-02  -4.279689e-01  -1.963171e+00  -1.459239e-01   2.247314e+00  -4.846946e+02   4.784599e+01  -1.250667e+00  -3.693154e+02   1.877378e+02  -1.065603e+00  -5.605893e+02  -5.993269e+02  -5.650508e-01  -6.529445e-01   2.638297e-01  -7.099700e-01  -5.568144e-01   4.682311e-01   6.860884e-01  -5.134405e-01  -8.432992e-01   1.588248e-01   8.099481e+02   6.059397e+02   6.709401e-02   1.719428e+02   1.700080e+00  -3.524048e-01   3.427911e+05   1.983632e+05   1.009481e+00   1.217255e+05   6.582484e+02   3.937833e+01   1.803851e+05   2.434097e+05  -6.340924e+01  -5.983193e+01  -2.721660e+00   6.209483e+01   1.434900e+01  -1.394162e+01  -4.198761e+01   8.497522e+01   3.772150e-03  -6.016798e-04  -6.228046e-03  -1.374379e-02   4.919237e-04   1.762419e-05  -2.713215e-05  -6.709298e-06  -1.023174e-04   3.772150e-03   4.919237e-04  -1.023174e-04  -7.172733e-03  -3.127589e-03   5.457446e-06   6.571053e-03  -3.100457e-03   1.216674e-05   4.922545e+02   4.958814e+00   7.390410e+00   6.036611e+00   1.040343e+03   1.040343e+03   1.557321e-02   1.170220e-02   1.027538e-02  -2.809971e+02   9.030286e+01  -3.296688e+02  -2.873451e+02  -2.259774e+02  -6.269338e-01   2.754410e-01   7.287566e-01  -7.176495e-01  -5.682285e-01  -4.026109e-01  -3.032048e-01   7.754022e-01  -5.539118e-01  -5.147761e-01   3.117449e+00   3.855460e+00  -6.024799e-01   7.956024e-01   6.351989e-02  -6.236262e-01  -4.195893e-01  -6.595720e-01   4.981048e-01   4.369915e-01  -7.489526e-01  -5.922563e-03  -8.482002e-06   1.009280e-02   6.278261e-01   7.017540e-01   3.367130e-01   2.804466e-02   4.119207e-01  -9.107880e-01   7.778482e-01  -5.812595e-01  -2.389341e-01
   5.000000e-03   1.500000e-02   1.575983e-02   1.197247e+03   1.213411e+00   3.401380e-01   3.265616e-01   3.333004e-01   1.697226e-02   1.977810e-02   1.307989e-03  -1.011656e+02  -8.802520e+01  -1.335805e+02  -1.031272e+01  -9.120616e+00  -1.376428e+00   3.798232e+00   8.924949e+00   7.822554e-01  -6.197977e+00  -2.777241e+00  -1.602171e+00   3.798230e+00  -6.239624e+00  -2.902628e+00  -6.156360e+00   8.924966e+00  -1.424731e+00  -2.651866e+00  -1.779586e+00   7.822636e-01   3.798215e+00  -6.239625e+00  -2.902630e+00  -6.156361e+00   8.924954e+00  -1.424731e+00  -2.651867e+00  -1.779586e+00   7.822447e-01  -5.269855e+02  -1.404260e+02  -2.413258e-02  -8.113405e+02   1.186949e+03   6.023372e-03   4.252164e+02  -6.314707e+02   1.807808e-02  -8.707969e-01  -4.915576e-01  -9.157103e-03  -4.379412e-01   7.670815e-01   4.688213e-01   2.234285e-01  -4.122584e-01   8.832455e-01   9.092222e+02   1.239843e+03   1.901225e-02  -5.386197e+02   2.241585e-02   9.030131e-03   5.583976e+05   9.136602e+05  -4.995273e-01  -5.787643e+05   7.758805e+00  -4.387512e-01   4.906858e+05   8.540888e+05   3.851546e-01  -3.035639e+02  -1.078737e+03   5.909294e+00   1.113299e+01  -5.728500e+02  -4.606387e+02   9.222775e+02   6.306247e-09  -6.364842e-08  -1.274124e-07  -1.171999e-07   1.115021e-07   1.410996e-07   1.152622e-07  -7.197837e-08   2.364130e-08   6.306247e-09   1.115021e-07   2.364130e-08  -9.042414e-08  -6.075087e-09   3.456060e-08   2.677572e-08  -1.213373e-07   1.065390e-07   1.902880e+02   1.386293e+01   1.386296e+01   1.386295e+01   1.715843e+03   1.715843e+03   2.922800e-07   1.784577e-07   2.314745e-07  -1.075904e+02   4.715511e+01  -1.363095e+02  -1.043039e+02  -8.215788e+01   2.737423e-01   8.578408e-02   9.579698e-01  -8.216197e-01  -4.969347e-01   2.792793e-01   5.000062e-01  -8.635375e-01  -6.555017e-02  -3.002163e+00   3.477314e+00   1.303028e+01  -6.356245e-01  -4.243144e-01  -6.449331e-01  -5.369869e-01  -3.571896e-01   7.642386e-01   5.546409e-01  -8.320894e-01   8.128110e-04  -4.786265e-08   1.837797e-08   1.709344e-07  -8.389455e-01  -5.144914e-01   1.773953e-01   2.639969e-01  -9.969766e-02   9.593571e-01   4.758951e-01  -8.516801e-01  -2.194650e-01
   1.500000e-02   5.000000e-03   5.253276e-03   1.713035e+03   5.469623e-01   3.321830e-01   3.199323e-01   3.478847e-01   4.593851e-03  -1.141884e-02   2.029068e-02  -2.896164e+02  -2.595154e+02  -3.708473e+02   1.833134e+01  -3.955996e+00  -4.831982e+01   6.263218e+01   9.457606e+01   6.037084e+01   9.718103e+01  -7.258224e+01  -1.339497e+02   6.264573e+01   9.201769e+01  -1.684420e+01   1.021027e+02   9.453795e+01  -8.900514e+01  -1.286014e+02  -1.789186e+02   6.037134e+01   6.266494e+01   9.201647e+01  -1.684393e+01   1.021015e+02   9.455517e+01  -8.900193e+01  -1.286012e+02  -1.789154e+02   6.039594e+01  -7.180264e+00  -1.217237e+02  -2.038593e-02  -1.149872e+03   4.504200e+02   1.727893e-03   1.262972e+03  -8.442227e+02   1.515205e-02  -2.039277e-01  -4.245535e-01  -8.821382e-01  -8.860252e-01  -3.032040e-01   3.507516e-01   4.163806e-01  -8.531246e-01   3.143335e-01   1.546157e+03   6.353363e+02   2.335206e-02  -7.257786e+02   8.935321e-03  -4.795576e-03   1.458678e+06   4.652029e+05  -4.996759e-01  -7.916406e+05   8.648072e+00  -4.765990e+00   6.412933e+05   1.255328e+06  -7.130009e+02  -1.123054e+02  -9.009251e+01   2.837019e+02   2.542397e+02  -1.010907e+02  -3.051329e+02   6.112659e+02   2.048786e-06  -4.070465e-04  -3.235960e-04  -1.738724e-06  -6.447784e-05  -4.867241e-05  -8.738049e-07   3.524859e-05  -3.919189e-06   2.048786e-06  -6.447784e-05  -3.919189e-06  -2.043926e-04  -1.622349e-04  -6.711912e-06  -2.026539e-04  -1.613611e-04  -4.196050e-05   5.423344e+02   3.035781e+02   3.035699e+02   3.035804e+02   1.961572e+03   1.961572e+03   5.274405e-04   3.747800e-04   3.711245e-04  -3.066597e+02   1.341949e+02  -3.889676e+02  -2.958672e+02  -2.351443e+02   2.791728e-02  -3.530116e-01  -9.352023e-01  -9.460897e-01   2.926936e-01  -1.387256e-01   3.226995e-01   8.886581e-01  -3.258094e-01  -1.091586e+02  -2.255638e+01   3.492941e+02  -2.525108e-01  -5.638221e-01  -7.863479e-01  -8.320426e-01   5.413590e-01  -1.209775e-01   4.939063e-01   6.237268e-01  -6.058230e-01  -2.865261e-04  -2.053211e-05   2.407100e-04  -6.686836e-01  -6.275686e-01  -3.987730e-01   1.056151e-01  -6.110400e-01   7.845225e-01  -7.360079e-01   4.824809e-01   4.748731e-01
   1.500000e-02   5.000000e-03   1.575983e-02   1.115058e+03   1.376559e+00   3.330019e-01   3.613500e-01   3.056481e-01   1.096332e-02   3.956542e-03   2.199407e-03  -1.115573e+02  -1.195437e+02  -1.341478e+02  -2.165101e+00   1.315394e+00   1.535536e+01   2.684146e+01  -8.642415e-01  -5.836593e+01   6.393776e+00   1.498879e+00  -3.842016e+01   2.684161e+01   1.071622e+01  -4.483764e+00   2.071452e+00  -8.643787e-01  -3.578805e+01   7.482149e+00  -4.105328e+01  -5.836649e+01   2.684189e+01   1.071622e+01  -4.483768e+00   2.071458e+00  -8.640801e-01  -3.578809e+01   7.482145e+00  -4.105332e+01  -5.836616e+01  -1.124084e+03   1.271325e+03   1.067151e+01   5.422836e+02  -2.595662e+02  -1.056539e+01   1.155394e+03   5.020250e+02   3.861074e+00  -5.138168e-01   8.180651e-01  -2.583830e-01   3.000325e-01  -1.108088e-01  -9.474713e-01   8.037243e-01   5.643500e-01   1.885107e-01   1.668894e+03   1.352107e+03   7.980925e+00  -3.276169e+02  -5.549921e+00   1.207972e+01   1.446285e+06   9.678354e+05   1.197082e+02  -4.948990e+05  -6.632022e+03   9.123866e+03   8.047466e+05   1.024922e+06   4.994273e-01   4.927722e-01   4.997233e-01  -2.034182e-03   3.976826e-04   1.413319e-03   4.973076e-01   5.384276e-03   7.067318e-07   9.814839e-07   1.780693e-06  -3.162113e-07  -9.525443e-07  -2.992792e-06   8.129019e-07  -1.316667e-06  -2.252171e-06   7.067318e-07  -9.525443e-07  -2.252171e-06   3.326363e-07   1.296797e-06  -2.154729e-06   6.488476e-07   4.838956e-07  -8.380627e-07   2.126400e+02   8.537612e+01   8.537704e+01   8.537693e+01   2.197381e+03   2.197381e+03   4.697284e-06   4.398803e-06   1.647730e-06  -1.217496e+02   3.347116e+01  -1.440077e+02  -1.119884e+02  -1.092527e+02  -6.981481e-02  -5.347542e-01   8.421186e-01  -8.834694e-01  -3.588840e-01  -3.011381e-01  -4.632578e-01   7.650099e-01   4.473835e-01  -8.027273e+01   2.014471e+01   2.773931e+01   7.072657e-02  -4.595464e-01  -8.853332e-01  -2.169780e-01  -8.733913e-01   4.360140e-01  -9.736110e-01   1.612600e-01  -1.614834e-01  -4.171284e-06   3.123015e-07   1.360999e-06  -2.487056e-01   5.564286e-01   7.928005e-01   5.455084e-01   7.568251e-01  -3.600504e-01  -8.003537e-01   3.429328e-01  -4.917632e-01
   1.500000e-02   1.500000e-02   5.253276e-03   1.596827e+03   6.595413e-01   3.125863e-01   3.302461e-01   3.571675e-01  -1.662020e-03   1.052845e-02   2.060492e-02  -3.140969e+02  -3.490478e+02  -3.552838e+02  -4.054391e+01   1.806615e+01   2.116217e+01  -4.033801e+01  -5.499939e+01  -4.257619e+01  -6.646838e+00   1.037189e+01   6.605553e+00  -6.777306e+01   2.050960e+01   3.748075e+01   1.935070e+01  -1.034624e+02   4.285729e+01   3.895961e+01   4.361229e+01  -5.364965e+01  -2.665495e+01   2.581738e+01   3.511583e+01   2.465804e+01  -5.776886e+01   4.008763e+01   3.659448e+01   4.084131e+01  -7.139802e+00   5.904328e+02  -2.617982e+02   4.541722e-03  -1.218220e+03   1.024641e+03  -4.814779e-03  -8.182072e+02   7.702965e+02   9.129657e-03   8.180224e-01   5.138460e-01  -2.584600e-01  -5.479526e-01   5.595538e-01  -6.218099e-01  -1.748923e-01   6.502783e-01   7.392908e-01   1.293612e+03   9.397248e+02   8.569495e-03  -9.103303e+02   4.756795e-03   5.576436e-03   1.251066e+06   8.558914e+05  -4.999364e-01  -1.016537e+06   5.385446e-01   4.550543e-01   7.023190e+05   1.386760e+06  -4.544914e+02  -2.632294e+03  -3.720931e+03  -1.094485e+03   1.301237e+03   3.130137e+03  -2.269239e+03   4.539477e+03  -4.147578e-02  -2.194811e-03   3.327355e-02   1.099763e-01  -7.643993e-02   9.494103e-02   4.734726e-02   3.073589e-03  -1.299327e-02  -4.147578e-02  -7.643993e-02  -1.299327e-02   5.389072e-02   4.031041e-02   4.900731e-02  -5.608554e-02  -7.036853e-03   4.593372e-02   5.929198e+02   8.281093e+01   1.601014e+02   1.059272e+02   2.052783e+03   2.052783e+03   1.794543e-01   1.469484e-01   1.030050e-01  -3.394762e+02   9.344962e+01  -3.949820e+02  -3.362237e+02  -2.872228e+02  -4.660807e-01  -6.749618e-01   5.720100e-01   2.659368e-01   5.097522e-01   8.181872e-01  -8.438284e-01   5.334597e-01  -5.808848e-02  -6.391577e+01  -4.373081e+01  -3.026702e+01  -4.564597e-01  -7.476700e-01   4.823215e-01  -4.767420e-01   6.632299e-01   5.769256e-01  -7.512400e-01   3.340040e-02  -6.591835e-01  -1.190580e-01  -6.654228e-02   5.469135e-02  -4.818528e-01   8.507286e-01  -2.099494e-01  -6.785865e-01  -2.106988e-01   7.036522e-01   5.543809e-01   4.815256e-01   6.788188e-01
   1.500000e-02   1.500000e-02   1.575983e-02   1.193231e+03   1.220861e+00   3.295687e-01   3.120910e-01   3.583403e-01  -1.015339e-02  -9.363664e-03  -6.333302e-03  -7.723045e+01  -7.538191e+01  -1.002333e+02   5.042549e-01   1.204988e+01   4.094472e+00  -5.574814e+00  -5.505461e+00  -5.327984e+00  -2.368577e+00  -1.153473e+00  -8.121787e+00  -5.574814e+00  -2.368370e+00  -7.447336e-01  -2.368713e+00  -5.505480e+00  -8.235921e+00  -1.562234e+00  -8.007777e+00  -5.328016e+00  -5.574788e+00  -2.368370e+00  -7.447377e-01  -2.368714e+00  -5.505455e+00  -8.235923e+00  -1.562238e+00  -8.007778e+00  -5.327982e+00  -6.868624e+02   6.663999e+02  -2.046772e-02  -8.595599e+02   5.223412e+02  -1.319020e-02   4.212961e+02  -3.533681e+02   1.196912e-02  -9.087298e-02   9.288243e-01   3.592039e-01  -9.737723e-01  -1.584258e-01   1.633060e-01   2.085898e-01  -3.349427e-01   9.188600e-01   9.873109e+02   6.545742e+02   1.491818e-03  -6.429081e+02   1.720085e-02  -2.093021e-02   6.940563e+05   4.208986e+05  -4.996319e-01  -5.277906e+05   1.521941e+01  -1.237949e+01   3.716515e+05   7.310363e+05  -2.901111e+04  -5.993546e+03  -1.897954e+05  -1.318700e+04  -7.420434e+04  -3.372899e+04  -7.493334e+04   1.498677e+05  -2.169357e-08  -4.266080e-08  -1.687852e-07   3.992182e-07  -1.532863e-07  -5.232128e-07   4.338921e-08  -7.843454e-08  -1.588723e-07  -2.169357e-08  -1.532863e-07  -1.588723e-07   1.782787e-07  -6.269799e-08  -3.008237e-07  -2.209395e-07  -1.060872e-07  -2.223891e-07   1.483851e+02   1.536048e+01   1.536056e+01   1.536053e+01   1.493289e+03   1.493289e+03   7.215799e-07   5.492050e-07   4.680293e-07  -8.428189e+01   3.258411e+01  -1.058093e+02  -7.603511e+01  -7.100123e+01  -3.840985e-01  -1.168780e-01   9.158646e-01  -4.661688e-01   8.807841e-01  -8.310230e-02  -7.969662e-01  -4.588669e-01  -3.927927e-01  -1.431296e+01  -4.726643e+00   2.631348e+00   3.040028e-01   6.843420e-01   6.627656e-01   9.499729e-01  -1.654357e-01  -2.649198e-01   7.165064e-02  -7.101457e-01   7.003993e-01  -4.731213e-07  -1.148709e-07   2.541399e-07   1.960387e-01  -7.275959e-01  -6.573987e-01  -8.196052e-01   2.464741e-01  -5.172019e-01   5.383457e-01   6.401990e-01  -5.480229e-01
