     VARIABLES=
              x              y              z      nomin_den    nomin_voidr      fabric_xx      fabric_yy      fabric_zz      fabric_xy      fabric_xz      fabric_yz       sigma_xx       sigma_yy       sigma_zz       sigma_xy       sigma_xz       sigma_yz    sigmaDot_xx    sigmaDot_yy    sigmaDot_zz    sigmaDot_xy    sigmaDot_xz    sigmaDot_yz       Oldro_xx       Oldro_xy       Oldro_xz       Oldro_yx       Oldro_yy       Oldro_yz       Oldro_zx       Oldro_zy       Oldro_zz       Trues_xx       Trues_xy       Trues_xz       Trues_yx       Trues_yy       Trues_yz       Trues_zx       Trues_zy       Trues_zz           F_xX           F_xY           F_xZ           F_yX           F_yY           F_yZ           F_zX           F_zY           F_zZ           R_xX           R_xY           R_xZ           R_yX           R_yY           R_yZ           R_zX           R_zY           R_zZ           U_xX           U_yY           U_zZ           U_xY           U_xZ           U_yZ       Green_xx       Green_yy       Green_zz       Green_xy       Green_xz       Green_yz      Green_vol      Green_shr       Euler_xx       Euler_yy       Euler_zz       Euler_xy       Euler_xz       Euler_yz      Euler_vol      Euler_shr           l_xx           l_xy           l_xz           l_yx           l_yy           l_yz           l_zx           l_zy           l_zz           d_xx           d_yy           d_zz           d_xy           d_xz           d_yz           w_xy           w_xz           w_yz     norm_sigma  norm_sigmaDot     norm_Oldro     norm_Trues         norm_F         norm_U         norm_l         norm_d         norm_w              p              q        sigma_1        sigma_2        sigma_3     sigma_1_v1     sigma_1_v2     sigma_1_v3     sigma_2_v1     sigma_2_v2     sigma_2_v3     sigma_3_v1     sigma_3_v2     sigma_3_v3     sigmaDot_1     sigmaDot_2     sigmaDot_3  sigmaDot_1_v1  sigmaDot_1_v2  sigmaDot_1_v3  sigmaDot_2_v1  sigmaDot_2_v2  sigmaDot_2_v3  sigmaDot_3_v1  sigmaDot_3_v2  sigmaDot_3_v3            d_1            d_2            d_3         d_1_v1         d_1_v2         d_1_v3         d_2_v1         d_2_v2         d_2_v3         d_3_v1         d_3_v2         d_3_v3
ZONE I=2, J=2, K=2, DATAPACKING=POINT, STRANDID=5, SOLUTIONTIME=17
   5.000000e-03   5.000000e-03   5.530076e-03   1.598387e+03   6.579217e-01   3.325805e-01   2.999566e-01   3.674629e-01   3.619017e-03   1.365292e-03   4.785899e-03  -2.737138e+02  -2.143201e+02  -3.781378e+02  -1.019782e+01   1.727670e+01  -3.601577e+01   3.758040e+05   4.076474e+04   7.020249e+05   1.137081e+05   1.386365e+06  -7.285869e+05   3.758118e+05   5.063802e+04   2.390019e+06   1.767827e+05   4.076631e+04  -4.675480e+04   3.827197e+05  -1.410421e+06   7.020315e+05   3.758043e+05   5.063772e+04   2.390019e+06   1.767824e+05   4.076040e+04  -4.675580e+04   3.827202e+05  -1.410422e+06   7.020210e+05   4.562982e+02  -7.120200e+02   5.905672e-01  -2.560003e+02  -6.904641e+02   1.468774e+00  -1.249426e+02  -6.706994e+01  -1.370685e-01   7.480517e-01  -6.500448e-01  -1.336430e-01  -6.136910e-01  -7.542248e-01   2.335129e-01  -2.525907e-01  -9.266417e-02  -9.631258e-01   5.299990e+02   9.898251e+02   3.960665e-01  -9.195486e+01  -4.249762e-01  -1.478979e+00   1.446769e+05   4.941053e+05   7.624266e-01  -6.987729e+04  -4.470298e+01  -7.127190e+02   2.129277e+05   3.042188e+05   4.420540e-01   3.265031e-01  -2.501781e+00   1.002663e-01  -4.170588e-01   7.216615e-01  -5.777412e-01   2.155480e+00   1.458496e-02  -4.877927e-03   3.184555e-03   1.122731e-02   2.522470e-03   3.599102e-03   1.359371e-02  -1.213886e-02   1.047159e-02   1.458496e-02   2.522470e-03   1.047159e-02   3.174692e-03   8.389131e-03  -4.269881e-03  -8.052619e-03  -5.204575e-03   7.868983e-03   5.169539e+02   2.918845e+06   2.918852e+06   2.918850e+06   1.130296e+03   1.130296e+03   2.887595e-02   2.293718e-02   1.754156e-02  -2.887239e+02   1.599450e+02  -3.874037e+02  -2.743724e+02  -2.043957e+02   1.251659e-01  -1.940417e-01  -9.729755e-01   9.744829e-01   2.082181e-01   8.383468e-02  -1.863237e-01   9.586413e-01  -2.151521e-01  -1.169598e+06   4.427146e+05   1.845477e+06   2.383018e-01  -7.515740e-01  -6.151007e-01   9.621021e-01   2.691343e-01   4.388930e-02  -1.325586e-01   6.022485e-01  -7.872261e-01  -2.156667e-03   8.568740e-03   2.116695e-02  -4.041392e-01   7.508729e-01   5.223613e-01  -4.691238e-01  -6.603972e-01   5.863433e-01   7.852352e-01  -8.087870e-03   6.191447e-01
   5.000000e-03   5.000000e-03   1.659023e-02   9.311738e+02   1.845870e+00   3.319834e-01   3.055006e-01   3.625160e-01  -2.008590e-02   2.415017e-02   3.468380e-02  -4.548307e+01  -5.088728e+01  -6.841241e+01   9.238912e-02  -4.406058e+00  -5.045895e+00  -1.693381e+05  -2.092518e+05   1.976443e+05   3.807650e+05   4.898789e+05   2.024180e+05  -1.693438e+05   4.293619e+04   9.881197e+05   7.186107e+05  -2.092728e+05  -1.119224e+05  -8.357299e+03   5.167198e+05   1.976323e+05  -1.693286e+05   4.293644e+04   9.881213e+05   7.186104e+05  -2.092558e+05  -1.119206e+05  -8.355955e+03   5.167214e+05   1.976552e+05   4.060820e+02  -8.956784e+02   2.038121e-02  -7.848392e+02   2.553205e+02  -3.816254e-02  -3.626343e+02  -8.159551e+02   3.043858e-02   3.386642e-01  -6.931467e-01  -6.362815e-01  -8.121727e-01   1.260797e-01  -5.696309e-01  -4.750600e-01  -7.096841e-01   5.202562e-01   9.472235e+02   1.232098e+03   2.460624e-02  -1.230709e+02   2.343681e-02  -4.054047e-02   4.561889e+05   7.666050e+05  -4.986009e-01  -1.341055e+05   1.359491e+01  -2.641760e+01   4.075978e+05   4.714179e+05  -3.339092e+02  -2.674763e+02  -2.230400e+02  -2.993555e+02   2.734115e+02   2.447518e+02  -2.748085e+02   5.506170e+02  -6.355052e-02   9.262257e-02   5.123612e-03   1.088063e-01  -1.776640e-01  -2.931410e-01   4.866163e-02   3.316962e-02  -9.356870e-02  -6.355052e-02  -1.776640e-01  -9.356870e-02   1.007144e-01   2.689262e-02  -1.299857e-01  -8.091845e-03  -2.176901e-02  -1.631553e-01   9.710855e+01   1.373224e+06   1.373227e+06   1.373227e+06   1.563838e+03   1.563838e+03   3.926858e-01   3.160444e-01   2.330624e-01  -5.492759e+01   2.346857e+01  -7.018226e+01  -5.031067e+01  -4.428984e+01  -1.476560e-01  -2.315653e-01  -9.615484e-01   3.231468e-01  -9.301440e-01   1.743797e-01  -9.347587e-01  -2.849731e-01   2.121709e-01  -1.031421e+06   6.957076e+04   7.809045e+05  -6.104141e-01   7.286811e-01  -3.105131e-01  -6.217250e-01  -1.978848e-01   7.578256e-01  -4.907674e-01  -6.556412e-01  -5.738310e-01  -3.111488e-01  -4.917475e-02   2.554035e-02  -3.711053e-01   7.762558e-01   5.096153e-01  -7.561766e-01   6.590477e-02  -6.510403e-01   5.389599e-01   6.269637e-01  -5.625289e-01
   5.000000e-03   1.500000e-02   5.530076e-03   1.464906e+03   8.089903e-01   3.211389e-01   3.185519e-01   3.603092e-01   6.084825e-03   6.022982e-03   1.535604e-02  -3.060647e+02  -2.295403e+02  -2.767961e+02   1.191850e+01   3.899116e+01  -2.747841e+01   6.890355e+04   8.927512e+04   8.807644e+04  -7.463180e+04   2.881583e+04   2.839611e+04   6.890686e+04  -3.269650e+04  -5.650372e+03  -1.165657e+05   8.927564e+04  -2.181306e+04   6.329186e+04   7.860464e+04   8.807595e+04   6.890434e+04  -3.269640e+04  -5.650049e+03  -1.165656e+05   8.927375e+04  -2.181329e+04   6.329218e+04   7.860442e+04   8.807367e+04  -3.009779e+02  -1.307374e+02  -1.220417e+00  -2.197284e+02   4.409027e+01  -1.041371e+00  -5.214648e+02  -5.587491e+02  -5.516067e-01  -5.846276e-01   9.763550e-02  -8.054054e-01  -6.667072e-01   5.078542e-01   5.455141e-01  -4.622901e-01  -8.558922e-01   2.318113e-01   5.635225e+02   4.878558e+02   2.869792e-01   3.053415e+02   1.662782e+00  -1.759050e-01   2.053964e+05   1.656179e+05   9.390711e-01   1.605146e+05   4.418905e+02   2.109248e+02   1.236717e+05   2.239988e+05  -3.650258e+00  -1.453225e+00   1.554883e-01   2.847162e+00   1.195746e+00  -8.203038e-01  -1.649331e+00   4.298652e+00   7.797562e-03   3.145503e-03   1.769975e-02  -1.469865e-03   1.168240e-03  -8.440785e-04   6.242140e-04  -6.440036e-04  -7.265955e-04   7.797562e-03   1.168240e-03  -7.265955e-04   8.378192e-04   9.161983e-03  -7.440411e-04   2.307684e-03   8.537769e-03  -1.000374e-04   4.773001e+02   2.140649e+05   2.140668e+05   2.140642e+05   8.614136e+02   8.614136e+02   1.973696e-02   1.526727e-02   1.250831e-02  -2.708003e+02   1.080225e+02  -3.388836e+02  -2.570843e+02  -2.164331e+02   7.758524e-01  -2.319427e-01  -5.867331e-01   6.258552e-01   4.004758e-01   6.692716e-01  -7.973974e-02   8.864658e-01  -4.558727e-01  -9.310052e+04   1.399306e+05   1.994250e+05  -6.277585e-01  -6.097717e-01   4.838364e-01   5.061672e-01   1.524445e-01   8.488554e-01  -5.913662e-01   7.777783e-01   2.129481e-01  -6.716746e-03   1.308101e-03   1.364785e-02   5.344448e-01  -1.355106e-01  -8.342695e-01  -5.212215e-02  -9.904691e-01   1.274919e-01   8.435947e-01   2.465346e-02   5.364142e-01
   5.000000e-03   1.500000e-02   1.659023e-02   1.121062e+03   1.363830e+00   3.407443e-01   3.201398e-01   3.391158e-01   5.254866e-02   4.718575e-02   1.182391e-02  -8.411626e+01  -8.250866e+01  -1.102178e+02  -9.857194e+00  -1.981040e+01   6.221896e+00   1.212052e+06  -4.657369e+05  -1.102629e+04  -3.688819e+06  -6.997582e+06   1.674662e+06   1.211440e+06  -5.351672e+05  -1.441000e+07  -6.841947e+06  -4.656709e+05  -5.184389e+05   4.137895e+05   3.868388e+06  -1.087241e+04   1.211576e+06  -5.351516e+05  -1.440996e+07  -6.841931e+06  -4.655371e+05  -5.184490e+05   4.138206e+05   3.868378e+06  -1.069368e+04  -5.253992e+02   2.141418e+02  -1.132216e-01  -5.399208e+02   9.603513e+02   2.166781e-02   5.448240e+02  -2.618390e+02  -1.954065e-02  -7.053438e-01  -1.107735e-01  -7.001567e-01  -1.178873e-01   9.922907e-01  -3.823213e-02   6.989941e-01   5.557275e-02  -7.129649e-01   8.150656e+02   9.146753e+02   9.237621e-02  -4.472807e+02   6.364696e-02   3.295679e-02   4.321954e+05   5.183450e+05  -4.931648e-01  -3.868398e+05   1.857070e+01   8.398751e-01   3.168466e+05   5.499025e+05  -2.822240e+01   4.139500e-01  -2.930014e+01  -1.572109e+00  -2.925630e+01  -1.601334e+00  -1.903620e+01   3.907239e+01  -2.550692e+00   7.262704e-01  -4.990073e+00   1.685350e+00   3.891046e-01   2.524080e+00   8.723884e-01  -2.328149e-02   5.399753e-01  -2.550692e+00   3.891046e-01   5.399753e-01   1.205810e+00  -2.058842e+00   1.250399e+00  -4.795397e-01  -2.931231e+00   1.273681e+00   1.645868e+02   1.648709e+07   1.648744e+07   1.648741e+07   1.378798e+03   1.378798e+03   6.507710e+00   4.632669e+00   4.570412e+00  -9.228091e+01   4.744017e+01  -1.203737e+02  -9.081563e+01  -6.565338e+01   4.626673e-01  -2.124461e-02   8.862774e-01   5.179138e-01   8.178524e-01  -2.507644e-01  -7.195167e-01   5.750358e-01   3.893964e-01  -7.859059e+06   6.305137e+05   7.963835e+06  -5.661823e-01  -7.271108e-01   3.882622e-01   4.785718e-01   9.354022e-02   8.730517e-01  -6.711234e-01   6.801178e-01   2.950139e-01  -4.174844e+00   6.550058e-01   1.898226e+00   8.248056e-01  -3.413995e-01   4.507129e-01   5.052632e-01   8.028214e-01  -3.165231e-01   2.537812e-01  -4.887987e-01  -8.346682e-01
   1.500000e-02   5.000000e-03   5.530076e-03   1.765595e+03   5.009108e-01   3.136591e-01   3.126946e-01   3.736463e-01  -1.144455e-04  -6.474708e-03   9.236712e-03  -2.751051e+02  -2.441196e+02  -3.309951e+02   3.845528e+00  -2.384791e+01  -2.520200e+01  -3.895461e+04   8.693589e+03   7.559011e+05   1.536633e+05  -2.912658e+05  -1.192955e+05  -3.895606e+04   1.336358e+05  -4.546580e+05   1.736864e+05   8.693645e+03   6.206543e+04  -1.278858e+05  -3.006537e+05   7.559112e+05  -3.895992e+04   1.336358e+05  -4.546583e+05   1.736865e+05   8.690220e+03   6.206507e+04  -1.278861e+05  -3.006540e+05   7.559066e+05  -4.850823e+02   1.077251e+02  -2.262781e-02  -8.515315e+02   1.969077e+02   2.877844e-03   1.117747e+03  -5.442293e+02   1.322197e-02  -4.325759e-01  -2.669744e-01  -8.611636e-01  -7.464285e-01  -4.296824e-01   5.081510e-01   5.056902e-01  -8.626110e-01   1.340705e-02   1.410676e+03   3.560905e+02   2.112590e-02  -4.687882e+02   1.432636e-02  -6.600927e-03   1.104884e+06   1.732809e+05  -4.996524e-01  -4.141196e+05   1.165230e+01  -4.533348e+00   4.260548e+05   8.363481e+05  -8.303396e+02  -2.887907e+02   2.989612e-01   4.902592e+02   1.292384e+01  -7.626068e+00  -3.729438e+02   7.468875e+02  -2.466178e-03  -6.164348e-03  -2.911954e-03  -2.723422e-03  -3.526678e-04   4.114768e-03  -1.915659e-02  -1.631724e-03   1.685042e-02  -2.466178e-03  -3.526678e-04   1.685042e-02  -4.443885e-03  -1.103427e-02   1.241522e-03  -1.720463e-03   8.122319e-03   2.873246e-03   4.972650e+02   9.686658e+05   9.686763e+05   9.686731e+05   1.598853e+03   1.598853e+03   2.702975e-02   2.400484e-02   1.242478e-02  -2.834066e+02   9.731167e+01  -3.448955e+02  -2.705747e+02  -2.347496e+02   3.063398e-01   2.203197e-01   9.260751e-01   9.153857e-01  -3.351209e-01  -2.230761e-01  -2.611991e-01  -9.160530e-01   3.043384e-01  -2.051550e+05   3.439285e+04   8.964022e+05   6.605246e-01  -7.371172e-01  -1.427079e-01  -7.263283e-01  -5.792060e-01  -3.700913e-01   1.901434e-01   3.481072e-01  -9.179689e-01  -8.970848e-03   7.494534e-04   2.225297e-02  -8.533052e-01  -3.901712e-01  -3.458853e-01   3.037618e-01  -9.111558e-01   2.784312e-01   4.237912e-01  -1.325200e-01  -8.960131e-01
   1.500000e-02   5.000000e-03   1.659023e-02   9.209416e+02   1.877490e+00   2.650727e-01   3.826709e-01   3.522563e-01   5.757035e-03  -5.872403e-03  -9.584138e-03  -8.455972e+01  -1.210083e+02  -1.247548e+02   3.055785e+00  -3.454355e+00   2.273015e+01  -1.401963e+04   1.816290e+05   3.120348e+05  -1.479226e+05  -2.220187e+05  -2.677843e+05  -1.401464e+04  -6.488193e+04  -4.292978e+05  -2.309749e+05   1.816395e+05  -1.693627e+05  -1.472191e+04  -3.662153e+05   3.120116e+05  -1.401184e+04  -6.488201e+04  -4.292977e+05  -2.309751e+05   1.816435e+05  -1.693635e+05  -1.472185e+04  -3.662160e+05   3.120157e+05  -1.979727e+03   1.789176e+03   1.186743e+01   1.427983e+02  -2.478218e+02  -1.164327e+01  -2.133135e+02   7.413456e+02   4.184726e+00  -8.704165e-01   4.902678e-01  -4.486278e-02  -6.142984e-02  -1.985701e-01  -9.781597e-01   4.884685e-01   8.486504e-01  -2.029557e-01   1.610218e+03   1.555528e+03   1.000726e+01  -1.179980e+03  -7.570254e+00   1.168159e+01   1.992606e+06   1.906079e+06   1.464568e+02  -1.867803e+06  -1.302478e+04   1.361035e+04   1.299610e+06   2.518563e+06   4.999882e-01   4.951543e-01   4.997697e-01  -2.364693e-04  -5.047442e-05  -1.049511e-03   4.983041e-01   3.388742e-03   2.832285e-02  -4.567136e-02  -1.206528e-02  -5.784570e-03   5.475620e-02   6.185324e-02   1.092421e-01  -1.112731e-01  -1.162310e-01   2.832285e-02   5.475620e-02  -1.162310e-01  -2.572796e-02   4.858839e-02  -2.470991e-02  -1.994339e-02  -6.065368e-02   8.656314e-02   1.960601e+02   7.317242e+05   7.317174e+05   7.317206e+05   2.792430e+03   2.792430e+03   2.184406e-01   1.567697e-01   1.521170e-01  -1.101076e+02   5.479762e+01  -1.453485e+02  -1.008230e+02  -8.415137e+01   6.643714e-02  -6.767821e-01   7.331795e-01  -9.105719e-02   7.276243e-01   6.799054e-01  -9.936270e-01  -1.119322e-01  -1.328460e-02  -2.719898e+05   1.024638e+05   6.491702e+05   6.158303e-01   6.604209e-01   4.296478e-01   7.576680e-01  -3.468513e-01  -5.528413e-01   2.160840e-01  -6.659868e-01   7.139813e-01  -1.324789e-01   1.731268e-02   8.201432e-02  -2.751036e-01   8.853924e-02   9.573290e-01  -7.608794e-01  -6.287302e-01  -1.605021e-01  -5.876909e-01   7.725666e-01  -2.403336e-01
   1.500000e-02   1.500000e-02   5.530076e-03   1.614053e+03   6.418297e-01   3.088265e-01   3.276388e-01   3.635346e-01  -5.125888e-04   5.724337e-05   2.095322e-02  -3.059400e+02  -3.080425e+02  -3.538121e+02  -4.570622e+01   4.760488e+00   1.477700e+01  -1.056150e+04  -8.057155e+02   4.492292e+04  -4.518234e+04  -1.401749e+04   2.226834e+04  -1.058766e+04  -1.466900e+04  -4.415034e+04  -7.577337e+04  -8.463095e+02   2.152144e+04   1.615616e+04   2.303191e+04   4.491595e+04  -1.055698e+04  -1.466441e+04  -4.415082e+04  -7.576881e+04  -8.154220e+02   2.151997e+04   1.615568e+04   2.303041e+04   4.495143e+04   5.002358e+02  -1.672390e+02   2.681894e-03  -1.124640e+03   9.517631e+02  -3.750803e-03  -8.859075e+02   8.838504e+02   1.105806e-02   7.769757e-01   5.271688e-01  -3.440956e-01  -5.963206e-01   4.411301e-01  -6.706758e-01  -2.017684e-01   7.262901e-01   6.571089e-01   1.238065e+03   9.736200e+02   8.859097e-03  -8.758296e+02   2.089279e-03   7.790581e-03   1.149941e+06   8.575062e+05  -4.999282e-01  -9.685297e+05  -2.118270e+00   2.877641e+00   6.691489e+05   1.314154e+06  -7.539806e+02  -2.865260e+03  -2.750371e+03  -1.470429e+03   1.440652e+03   2.807728e+03  -2.123204e+03   4.247408e+03  -4.284397e-02   3.177269e-03   2.440276e-02  -1.152077e-01  -4.811357e-02   1.422921e-02   3.770572e-02   5.877159e-04  -9.312593e-03  -4.284397e-02  -4.811357e-02  -9.312593e-03  -5.601521e-02   3.105424e-02   7.408460e-03   5.919248e-02  -6.651477e-03   6.820745e-03   5.642097e+02   1.062278e+05   1.062589e+05   1.062662e+05   2.003721e+03   2.003721e+03   1.404998e-01   1.120319e-01   8.478814e-02  -3.225982e+02   9.566871e+01  -3.674063e+02  -3.395007e+02  -2.608875e+02  -4.436936e-01  -5.230214e-01   7.277257e-01  -5.534843e-01  -4.787279e-01  -6.815238e-01   7.048341e-01  -7.051725e-01  -7.707561e-02  -8.731109e+04   4.914226e+04   7.172453e+04  -7.090070e-01  -6.750359e-01   2.040481e-01   3.219204e-01  -5.237310e-02   9.453170e-01  -6.274363e-01   7.359237e-01   2.544407e-01  -1.089497e-01  -1.359688e-02   2.227646e-02  -6.928500e-01  -6.703118e-01   2.657836e-01  -2.434688e-01   5.644098e-01   7.887741e-01  -6.787354e-01   4.817921e-01  -5.542514e-01
   1.500000e-02   1.500000e-02   1.659023e-02   1.036353e+03   1.557045e+00   3.282732e-01   2.891816e-01   3.825452e-01  -1.053735e-02  -1.843933e-02   1.321988e-03  -9.350461e+01  -7.787118e+01  -1.017215e+02   8.540137e+00   2.530531e+01  -1.648405e+01  -2.326585e+05  -8.875667e+04  -3.143018e+04   6.037583e+05   9.989027e+04   7.531721e+05  -2.324677e+05   4.347834e+04   3.836841e+05   1.164128e+06  -8.881723e+04  -4.212376e+04  -1.840423e+05   1.548248e+06  -3.151568e+04  -2.324947e+05   4.348106e+04   3.836914e+05   1.164130e+06  -8.883970e+04  -4.212871e+04  -1.840350e+05   1.548243e+06  -3.154503e+04  -4.865539e+02   5.123095e+02  -1.546685e-02  -4.746700e+02   1.526304e+02  -2.565873e-02   2.293344e+02  -3.324014e+02   1.435597e-02  -3.758343e-01   7.265823e-01   5.751754e-01  -9.261838e-01  -3.149669e-01  -2.073146e-01   3.053009e-02  -6.106341e-01   7.913241e-01   6.294969e+02   5.271372e+02   7.783502e-03  -3.440555e+02   3.001597e-02  -1.192253e-02   2.573198e+05   1.981234e+05  -4.994482e-01  -1.989732e+05   1.149860e+01  -8.306030e+00   1.518142e+05   2.774939e+05  -2.731012e+03  -3.541624e+02  -5.169633e+03   9.842585e+02  -3.757963e+03   1.354124e+03  -2.751603e+03   5.504205e+03   9.218940e-01   3.690403e-02  -3.753659e-01   3.559479e-01  -1.733509e-01  -8.336148e-01  -2.241634e-01  -9.921171e-02  -4.599480e-01   9.218940e-01  -1.733509e-01  -4.599480e-01   1.964260e-01  -2.997646e-01  -4.664133e-01  -1.595219e-01  -7.560124e-02  -3.672016e-01   1.647022e+02   2.000065e+06   1.999984e+06   1.999988e+06   9.544047e+02   9.544047e+02   1.454461e+00   1.335462e+00   5.761940e-01  -9.103241e+01   5.757510e+01  -1.291051e+02  -7.621671e+01  -6.777538e+01  -5.960181e-01   3.169891e-01   7.377535e-01  -6.834161e-01  -6.826066e-01  -2.588256e-01  -4.215505e-01   6.584574e-01  -6.234814e-01  -2.129653e+06   1.612612e+04   1.760682e+06  -4.751732e-01   6.875725e-01  -5.490488e-01  -7.994365e-01  -7.668694e-02   5.958359e-01  -3.675755e-01  -7.220548e-01  -5.861101e-01  -8.141182e-01   4.505569e-02   1.057658e+00  -7.645056e-02  -5.713549e-01  -8.171346e-01  -3.510985e-01   7.824694e-01  -5.142679e-01   9.332123e-01   2.475787e-01  -2.604221e-01
