     VARIABLES=
              x              y              z      nomin_den    nomin_voidr      fabric_xx      fabric_yy      fabric_zz      fabric_xy      fabric_xz      fabric_yz       sigma_xx       sigma_yy       sigma_zz       sigma_xy       sigma_xz       sigma_yz    sigmaDot_xx    sigmaDot_yy    sigmaDot_zz    sigmaDot_xy    sigmaDot_xz    sigmaDot_yz       Oldro_xx       Oldro_xy       Oldro_xz       Oldro_yx       Oldro_yy       Oldro_yz       Oldro_zx       Oldro_zy       Oldro_zz       Trues_xx       Trues_xy       Trues_xz       Trues_yx       Trues_yy       Trues_yz       Trues_zx       Trues_zy       Trues_zz           F_xX           F_xY           F_xZ           F_yX           F_yY           F_yZ           F_zX           F_zY           F_zZ           R_xX           R_xY           R_xZ           R_yX           R_yY           R_yZ           R_zX           R_zY           R_zZ           U_xX           U_yY           U_zZ           U_xY           U_xZ           U_yZ       Green_xx       Green_yy       Green_zz       Green_xy       Green_xz       Green_yz      Green_vol      Green_shr       Euler_xx       Euler_yy       Euler_zz       Euler_xy       Euler_xz       Euler_yz      Euler_vol      Euler_shr           l_xx           l_xy           l_xz           l_yx           l_yy           l_yz           l_zx           l_zy           l_zz           d_xx           d_yy           d_zz           d_xy           d_xz           d_yz           w_xy           w_xz           w_yz     norm_sigma  norm_sigmaDot     norm_Oldro     norm_Trues         norm_F         norm_U         norm_l         norm_d         norm_w              p              q        sigma_1        sigma_2        sigma_3     sigma_1_v1     sigma_1_v2     sigma_1_v3     sigma_2_v1     sigma_2_v2     sigma_2_v3     sigma_3_v1     sigma_3_v2     sigma_3_v3     sigmaDot_1     sigmaDot_2     sigmaDot_3  sigmaDot_1_v1  sigmaDot_1_v2  sigmaDot_1_v3  sigmaDot_2_v1  sigmaDot_2_v2  sigmaDot_2_v3  sigmaDot_3_v1  sigmaDot_3_v2  sigmaDot_3_v3            d_1            d_2            d_3         d_1_v1         d_1_v2         d_1_v3         d_2_v1         d_2_v2         d_2_v3         d_3_v1         d_3_v2         d_3_v3
ZONE I=2, J=2, K=2, DATAPACKING=POINT, STRANDID=5, SOLUTIONTIME=19
   5.000000e-03   5.000000e-03   5.472071e-03   1.615330e+03   6.405318e-01   3.371473e-01   2.980458e-01   3.648069e-01  -3.234467e-03  -2.185279e-03   2.317228e-04  -3.061288e+02  -2.443795e+02  -3.664204e+02  -3.064420e+01   1.762442e+01  -4.512049e+01  -1.594609e+05   5.290821e+05   2.755927e+05   4.429783e+05   1.023985e+06  -3.871251e+05  -1.594629e+05   4.322313e+03   1.800170e+06   8.816245e+05   5.290761e+05   1.352942e+05   2.477985e+05  -9.095437e+05   2.755999e+05  -1.594616e+05   4.322446e+03   1.800170e+06   8.816246e+05   5.290771e+05   1.352944e+05   2.477984e+05  -9.095435e+05   2.756014e+05   4.551843e+02  -7.093158e+02   5.902029e-01  -2.608154e+02  -6.938636e+02   1.468066e+00  -1.230347e+02  -6.572552e+01  -1.371003e-01   7.486468e-01  -6.498455e-01  -1.312587e-01  -6.152219e-01  -7.547525e-01   2.277074e-01  -2.470425e-01  -8.971919e-02  -9.648422e-01   5.316264e+02   9.905378e+02   3.891004e-01  -8.790985e+01  -4.274632e-01  -1.479266e+00   1.451770e+05   4.944472e+05   7.611766e-01  -6.690630e+04  -4.868747e+01  -7.141333e+02   2.132083e+05   3.034633e+05   4.420653e-01   3.290843e-01  -2.621844e+00   9.950795e-02  -4.252760e-01   7.304573e-01  -6.168981e-01   2.233794e+00  -1.560490e-03  -1.670995e-02   2.869647e-03  -2.245503e-03  -1.058584e-02  -7.978855e-03  -2.435586e-03   1.400085e-02   7.929535e-03  -1.560490e-03  -1.058584e-02   7.929535e-03  -9.477728e-03   2.170303e-04   3.010998e-03  -7.232226e-03   2.652616e-03  -1.098985e-02   5.424695e+02   2.303517e+06   2.303514e+06   2.303514e+06   1.131041e+03   1.131041e+03   2.711993e-02   1.937147e-02   1.897990e-02  -3.056429e+02   1.445879e+02  -3.821715e+02  -3.181337e+02  -2.166234e+02  -1.143292e-01   2.864870e-01   9.512381e-01  -9.275882e-01  -3.736029e-01   1.032258e-03   3.556810e-01  -8.822392e-01   3.084557e-01  -1.164749e+06   3.055768e+05   1.504386e+06  -6.409848e-01   5.943967e-01   4.856244e-01  -6.878501e-01  -1.640907e-01  -7.070619e-01   3.405888e-01   7.872527e-01  -5.140355e-01  -1.685733e-02   3.954621e-03   8.685914e-03   5.247508e-01   8.444817e-01  -1.071785e-01   8.240380e-01  -4.723465e-01   3.128101e-01  -2.135370e-01   2.524665e-01   9.437492e-01
   5.000000e-03   5.000000e-03   1.641621e-02   9.410444e+02   1.816020e+00   3.525631e-01   2.956504e-01   3.517865e-01  -2.247926e-02   1.150816e-02   8.495980e-03  -9.902773e+01  -1.238034e+02  -9.774192e+01   2.247855e+01  -4.949979e+00   1.293270e+01  -2.008604e+05   1.182447e+06  -1.916720e+06  -1.197382e+07  -6.951481e+05   7.124616e+06  -2.008838e+05  -2.846897e+05  -1.545539e+06  -2.366298e+07   1.182441e+06   4.124068e+05   1.552120e+05   1.383681e+07  -1.916727e+06  -2.008618e+05  -2.846966e+05  -1.545538e+06  -2.366299e+07   1.182468e+06   4.124045e+05   1.552127e+05   1.383681e+07  -1.916706e+06   1.847473e+02  -9.477727e+02   1.701087e-02  -6.879592e+02   2.425296e+02  -3.398976e-02  -4.005661e+02  -9.961153e+02   3.027126e-02   2.477717e-01  -6.835414e-01  -6.865715e-01  -8.482005e-01   1.893928e-01  -4.946577e-01  -4.681507e-01  -7.049125e-01   5.328540e-01   8.168278e+02   1.395949e+03   2.126427e-02   2.578710e+01   1.887343e-02  -3.940364e-02   3.339358e+05   9.746693e+05  -4.988195e-01   2.853056e+04   7.200320e+00  -2.725981e+01   4.362015e+05   5.728909e+05  -5.208597e+02  -2.700813e+02  -3.135041e+02  -3.755931e+02   4.046098e+02   2.914852e+02  -3.681484e+02   7.372967e+02  -8.649571e-02   7.262227e-02  -3.023300e-01  -3.316880e-01  -9.245338e-02  -5.837184e-02   1.649255e-01   2.725005e-02  -4.298600e-02  -8.649571e-02  -9.245338e-02  -4.298600e-02  -1.295328e-01  -6.870228e-02  -1.556090e-02   2.021551e-01  -2.336278e-01  -4.281094e-02   1.903790e+02   2.755303e+07   2.755305e+07   2.755305e+07   1.617780e+03   1.617780e+03   5.058869e-01   2.477070e-01   4.410927e-01  -1.068577e+02   4.497728e+01  -1.365990e+02  -9.528958e+01  -8.868442e+01  -3.538437e-01   8.556160e-01  -3.777775e-01  -8.109802e-01  -7.945167e-02   5.796538e-01  -4.659460e-01  -5.114769e-01  -7.220012e-01  -2.723802e+07  -1.341948e+06   2.764484e+07   6.096183e-01   6.940338e-01  -3.829917e-01  -5.069425e-01  -3.009711e-02  -8.614542e-01   6.094053e-01  -7.193131e-01  -3.334875e-01  -2.375255e-01  -4.129065e-02   5.688106e-02   6.959258e-01   6.533498e-01   2.980289e-01  -8.981486e-02   4.909476e-01  -8.665470e-01  -7.124749e-01   5.762850e-01   4.003437e-01
   5.000000e-03   1.500000e-02   5.472071e-03   1.480434e+03   7.900158e-01   3.228184e-01   3.084993e-01   3.686823e-01  -1.049950e-03   9.406188e-05   2.574159e-02  -2.918532e+02  -2.519129e+02  -2.743114e+02   1.675536e+01   4.326106e+01  -2.664263e+01   2.693563e+05   7.973798e+04   9.807087e+05   2.219750e+05  -5.814455e+04   3.258149e+05   2.693604e+05  -2.597889e+04  -1.012768e+05   4.699358e+05   7.974036e+04   1.640573e+05  -1.498614e+04   4.875579e+05   9.807117e+05   2.693523e+05  -2.597836e+04  -1.012756e+05   4.699362e+05   7.973337e+04   1.640566e+05  -1.498494e+04   4.875572e+05   9.807041e+05  -2.963769e+02  -1.371348e+02  -1.221244e+00  -2.185643e+02   4.324043e+01  -1.039886e+00  -5.299137e+02  -5.658002e+02  -5.513853e-01  -5.690808e-01   8.316372e-02  -8.180653e-01  -6.765549e-01   5.180937e-01   5.233091e-01  -4.673548e-01  -8.512712e-01   2.385724e-01   5.641909e+02   4.926474e+02   3.233303e-01   3.132157e+02   1.656219e+00  -1.709431e-01   2.082086e+05   1.704023e+05   9.384124e-01   1.655090e+05   4.407085e+02   2.172419e+02   1.262039e+05   2.300615e+05  -2.852963e+00  -9.091178e-01   2.142794e-01   2.173631e+00   9.787782e-01  -6.345122e-01  -1.182600e+00   3.365189e+00   1.260065e-02   6.315519e-03   3.610750e-02   4.431034e-03   4.728305e-03   2.763335e-03   1.190197e-02  -3.187373e-02   1.042480e-02   1.260065e-02   4.728305e-03   1.042480e-02   5.373277e-03   2.400473e-02  -1.455520e-02   9.422427e-04   1.210276e-02   1.731853e-02   4.791886e+02   1.239893e+06   1.239892e+06   1.239884e+06   8.701877e+02   8.701877e+02   5.308774e-02   4.386018e-02   2.990974e-02  -2.726925e+02   9.679125e+01  -3.361707e+02  -2.509902e+02  -2.309166e+02  -7.140543e-01   3.123208e-01   6.265638e-01  -6.018173e-01  -7.310960e-01  -3.214258e-01  -3.576903e-01   6.065925e-01  -7.100023e-01  -4.184787e+05   5.171438e+05   1.231138e+06   5.455614e-01  -7.895643e-01   2.809824e-01   8.120229e-01   4.150708e-01  -4.102865e-01  -2.073200e-01  -4.520006e-01  -8.675909e-01  -2.070266e-02   1.155730e-02   3.689911e-02  -5.585597e-01   4.977684e-01   6.635041e-01   4.996801e-01   8.404094e-01  -2.098376e-01  -6.620656e-01   2.143329e-01  -7.181438e-01
   5.000000e-03   1.500000e-02   1.641621e-02   1.132946e+03   1.339036e+00   3.581900e-01   2.990687e-01   3.427413e-01   3.297229e-02   4.543542e-02   2.039973e-02  -1.700552e+02  -1.194453e+02  -1.807528e+02   1.458918e+01  -1.946453e+01  -5.928617e+01   1.234131e+06   8.366487e+05   1.837841e+06  -4.910314e+06   9.749068e+05  -4.679752e+05   1.234470e+06  -1.152383e+05   1.552414e+06  -9.704821e+06   8.365301e+05   6.362830e+05   3.984087e+05  -1.572690e+06   1.837546e+06   1.234463e+06  -1.152375e+05   1.552413e+06  -9.704821e+06   8.365252e+05   6.362805e+05   3.984082e+05  -1.572692e+06   1.837538e+06  -1.080335e+02  -4.471378e+02  -3.388306e-02  -6.009979e+02   1.092830e+03  -1.289837e-02   3.997900e+02  -9.670245e+01  -9.289286e-03  -4.994340e-01  -5.606004e-01  -6.605247e-01  -4.776320e-01   8.142566e-01  -3.299300e-01   7.227955e-01   1.507095e-01  -6.744281e-01   6.299779e+02   1.125936e+03   3.290111e-02  -3.685507e+02   1.636877e-02   7.092295e-03   2.663504e+05   7.017797e+05  -4.992996e-01  -3.235716e+05   3.849317e+00   9.764881e-01   3.227099e+05   5.540214e+05  -2.010156e+02  -4.978111e+01  -2.096247e+02  -1.006599e+02  -2.057751e+02  -1.027877e+02  -1.534738e+02   3.079476e+02   6.828062e-01  -3.730563e-01   2.447256e+00   1.297600e+00   2.575461e-01  -1.200180e+00   5.274820e-01   7.602669e-02  -8.995084e-01   6.828062e-01   2.575461e-01  -8.995084e-01   4.622716e-01   1.487369e+00  -5.620768e-01  -8.353279e-01   9.598869e-01  -6.381035e-01   2.902418e+02   1.025905e+07   1.025885e+07   1.025885e+07   1.391496e+03   1.391496e+03   3.298199e+00   2.612557e+00   2.013123e+00  -1.567511e+02   1.162998e+02  -2.150382e+02  -1.718850e+02  -8.332993e+01  -1.216560e-01  -4.957610e-01  -8.598959e-01  -9.784293e-01   2.056234e-01   1.987653e-02   1.669607e-01   8.437654e-01  -5.100824e-01  -8.739867e+06   1.694768e+06   1.095372e+07  -6.934774e-01  -7.159839e-01  -8.034959e-02  -1.639007e-01   4.817563e-02   9.852998e-01  -7.015879e-01   6.964525e-01  -1.507590e-01  -2.020814e+00   4.756064e-01   1.586052e+00   4.986371e-01  -3.016496e-01  -8.126306e-01  -7.614336e-02  -9.491137e-01   3.055901e-01  -8.634600e-01  -9.050216e-02  -4.962319e-01
   1.500000e-02   5.000000e-03   5.472071e-03   1.763011e+03   5.031107e-01   3.238304e-01   3.153856e-01   3.607839e-01   2.509730e-03  -4.768057e-03   1.622663e-02  -3.624897e+02  -3.325239e+02  -4.385778e+02   2.736011e+01  -2.394141e+01  -6.342883e+01   6.659884e+05   8.521562e+05   1.271476e+06  -5.664778e+05  -7.856131e+05   1.664663e+06   6.659883e+05  -2.880425e+05  -1.562495e+06  -8.449169e+05   8.521645e+05   4.832155e+05  -8.738401e+03   2.846129e+06   1.271476e+06   6.659853e+05  -2.880423e+05  -1.562495e+06  -8.449166e+05   8.521617e+05   4.832150e+05  -8.738557e+03   2.846128e+06   1.271473e+06  -3.718677e+02  -1.004324e+02  -1.989894e-02  -1.027399e+03   4.168041e+02   1.010590e-03   1.453896e+03  -8.151439e+02   1.551119e-02  -5.246189e-01  -7.472011e-01  -4.080019e-01  -6.111249e-01  -3.127980e-03   7.915280e-01   5.927068e-01  -6.645906e-01   4.549922e-01   1.684692e+03   6.154765e+02   1.597619e-02  -6.851720e+02   1.901535e-02   4.556753e-03   1.653823e+06   4.241355e+05  -4.996812e-01  -7.880054e+05   1.445658e+01  -5.112069e+00   6.926527e+05   1.346012e+06  -3.255597e+02  -1.226968e+03  -4.050877e+02   6.326358e+02   3.636562e+02  -7.055821e+02  -6.525386e+02   1.306077e+03  -2.892091e-04  -1.420979e-03   2.687682e-04  -3.338710e-03   1.156272e-02   3.316738e-03  -8.451416e-03   2.231852e-02  -3.030179e-03  -2.892091e-04   1.156272e-02  -3.030179e-03  -2.379845e-03  -4.091324e-03   1.281763e-02   9.588655e-04   4.360092e-03  -9.500889e-03   6.671570e+02   3.789268e+06   3.789280e+06   3.789277e+06   2.038607e+03   2.038607e+03   2.714303e-02   2.272334e-02   1.484565e-02  -3.778638e+02   1.599527e+02  -4.693292e+02  -3.796058e+02  -2.846564e+02  -3.714891e-02  -4.201432e-01  -9.066971e-01  -9.039085e-01   4.010138e-01  -1.487862e-01   4.261096e-01   8.140440e-01  -3.946683e-01  -1.939531e+06   7.106652e+05   4.018487e+06   2.338841e-01   7.279070e-01  -6.445538e-01   9.565449e-01  -5.354261e-02   2.866271e-01  -1.741268e-01   6.835821e-01   7.087985e-01  -1.102143e-02  -5.977935e-04   1.986255e-02   2.242165e-01  -4.630488e-01   8.575038e-01  -9.534322e-01  -2.863669e-01   9.466239e-02   2.017274e-01  -8.387966e-01  -5.056939e-01
   1.500000e-02   5.000000e-03   1.641621e-02   9.520034e+02   1.783603e+00   3.293480e-01   3.773791e-01   2.932729e-01   2.392140e-02   6.563038e-03  -7.645989e-03  -1.331214e+02  -1.678923e+02  -1.127471e+02   1.120456e+01  -1.575491e+00   1.699973e+01  -2.310419e+05   6.395873e+05  -6.027253e+04  -1.926363e+05   2.645627e+05   4.970363e+05  -2.310454e+05  -2.895282e+05   4.897869e+05  -9.574099e+04   6.395843e+05  -9.469129e+04   3.934082e+04   1.088760e+06  -6.027738e+04  -2.310394e+05  -2.895287e+05   4.897870e+05  -9.574149e+04   6.395919e+05  -9.469200e+04   3.934088e+04   1.088759e+06  -6.027228e+04  -1.485242e+03   1.347631e+03   1.130298e+01   1.463028e+02  -2.776028e+02  -1.114849e+01  -2.058414e+01   4.994808e+02   4.028007e+00  -8.423424e-01   5.320164e-01  -8.612686e-02  -7.747620e-02  -2.776826e-01  -9.575436e-01   5.333448e-01   7.999068e-01  -2.751225e-01   1.228769e+03   1.193586e+03   8.593482e+00  -8.472641e+02  -6.508919e+00   1.233114e+01   1.113885e+06   1.071327e+06   1.336355e+02  -1.026227e+06  -9.250812e+03   1.016951e+04   7.284486e+05   1.391218e+06   4.999432e-01   4.936427e-01   4.994185e-01  -5.996774e-04  -1.800652e-04  -1.916226e-03   4.976681e-01   4.659877e-03  -1.287218e-02   6.001397e-03   8.340077e-03   4.331723e-03  -1.173676e-02  -3.088588e-02   3.288915e-03   5.983246e-03  -2.065508e-02  -1.287218e-02  -1.173676e-02  -2.065508e-02   5.166560e-03   5.814496e-03  -1.245132e-02   8.348366e-04   2.525581e-03  -1.843456e-02   2.438419e+02   1.412404e+06   1.412402e+06   1.412404e+06   2.090621e+03   2.090621e+03   4.306934e-02   3.407567e-02   2.634041e-02  -1.379202e+02   6.092382e+01  -1.762164e+02  -1.304893e+02  -1.070551e+02   2.460174e-01  -9.296580e-01   2.742469e-01   9.662775e-01   2.130375e-01  -1.446473e-01  -7.604763e-02  -3.005843e-01  -9.507186e-01  -8.662257e+05  -2.205394e+05   1.435038e+06   1.377921e-01   5.860750e-01  -7.984544e-01  -9.899253e-01   5.497557e-02  -1.304822e-01  -3.257687e-02   8.083896e-01   5.877457e-01  -3.247311e-02  -9.919965e-03  -2.870946e-03   3.672167e-01  -5.443614e-01  -7.542033e-01   9.233211e-01   1.153677e-01   3.662901e-01   1.123835e-01   8.308796e-01  -5.449853e-01
   1.500000e-02   1.500000e-02   5.472071e-03   1.571927e+03   6.858286e-01   3.193805e-01   3.068269e-01   3.737926e-01  -6.703676e-03   9.348761e-03   1.868058e-02  -3.856509e+02  -3.708949e+02  -3.955891e+02  -3.105437e+01   1.489497e+01   1.889594e+01   6.812514e+05  -6.122959e+05   1.988681e+06  -2.009815e+06  -2.070811e+06  -2.903592e+05   6.812744e+05   2.208326e+05  -3.336492e+06  -4.240654e+06  -6.122792e+05   2.594781e+05  -8.051855e+05  -8.401091e+05   1.988707e+06   6.812323e+05   2.208296e+05  -3.336490e+06  -4.240658e+06  -6.123197e+05   2.594799e+05  -8.051839e+05  -8.401067e+05   1.988664e+06   5.440778e+02  -2.261515e+02   3.945564e-03  -1.304642e+03   1.137678e+03  -3.878147e-03  -8.660852e+02   8.070079e+02   1.007850e-02   8.135629e-01   5.577501e-01  -1.644087e-01  -5.336029e-01   6.037697e-01  -5.922247e-01  -2.310484e-01   5.695410e-01   7.888217e-01   1.338910e+03   1.020384e+03   9.598189e-03  -9.775146e+02   2.950734e-03   5.599250e-03   1.374106e+06   9.983583e+05  -4.999339e-01  -1.153122e+06  -7.612767e-01   1.414525e+00   7.908214e+05   1.563772e+06  -1.462669e+02  -1.903182e+03  -3.376744e+03  -5.285808e+02   7.040367e+02   2.535587e+03  -1.808731e+03   3.618462e+03   2.821993e-02   1.370962e-02  -1.299852e-02  -2.631982e-01   5.129577e-02   1.321879e-01  -5.262921e-02  -2.508834e-02   2.976936e-02   2.821993e-02   5.129577e-02   2.976936e-02  -1.247443e-01  -3.281386e-02   5.354980e-02   1.384539e-01   1.981535e-02   7.863814e-02   6.677582e+02   5.947978e+06   5.948067e+06   5.948053e+06   2.178286e+03   2.178286e+03   3.079237e-01   2.081461e-01   2.269189e-01  -3.840450e+02   7.731264e+01  -4.308458e+02  -3.793442e+02  -3.419449e+02  -6.008441e-01  -5.505666e-01   5.795367e-01   5.572039e-01   2.313673e-01   7.974917e-01  -5.731581e-01   8.020883e-01   1.677622e-01  -4.464359e+06   2.196082e+06   4.325913e+06   6.422747e-01   7.457041e-01   1.772247e-01   9.326613e-02   1.534670e-01  -9.837425e-01  -7.607789e-01   6.483620e-01   2.901905e-02  -8.689723e-02   7.179356e-03   1.890029e-01  -7.146146e-01  -6.898896e-01   1.156645e-01   3.307272e-01  -1.875130e-01   9.249099e-01   6.163972e-01  -6.992075e-01  -3.621648e-01
   1.500000e-02   1.500000e-02   1.641621e-02   1.106573e+03   1.394781e+00   2.928913e-01   3.095688e-01   3.975400e-01  -6.106660e-05  -5.453338e-04  -5.612932e-03  -4.470913e+01  -6.145238e+01  -1.077029e+02  -3.648485e+00   4.210981e+00   5.704121e+00   1.685505e+05   9.937635e+04  -1.330271e+04   7.474154e+04   2.501935e+05  -5.900189e+04   1.685558e+05   1.226108e+04   3.068183e+05   1.372215e+05   9.937712e+04  -7.252893e+04   1.935788e+05  -4.546279e+04  -1.332395e+04   1.685569e+05   1.226115e+04   3.068182e+05   1.372217e+05   9.937859e+04  -7.252905e+04   1.935787e+05  -4.546294e+04  -1.332139e+04  -7.710070e+02   6.101974e+02  -1.749813e-02  -9.665236e+02   4.744862e+02  -1.284710e-02   3.723250e+02  -4.656792e+02   1.252724e-02  -3.624984e-01   5.858053e-01  -7.248635e-01  -9.262999e-01  -1.406898e-01   3.495353e-01  -1.027788e-01  -7.981469e-01  -5.936312e-01   1.136512e+03   6.623820e+02   7.566796e-04  -6.128501e+02   1.695578e-02  -1.844163e-02   8.336224e+05   4.071671e+05  -4.996859e-01  -5.512263e+05   1.528621e+01  -1.130338e+01   4.135963e+05   7.980085e+05  -4.597017e+05  -1.068940e+05  -3.083537e+05   2.216747e+05  -3.764985e+05   1.815527e+05  -2.916498e+05   5.833006e+05   6.417541e-02   3.151115e-03   5.385030e-02  -1.746615e-03   1.343251e-02   7.587563e-02  -1.536307e-02  -4.215918e-02  -1.014215e-01   6.417541e-02   1.343251e-02  -1.014215e-01   7.022496e-04   1.924361e-02   1.685822e-02   2.448865e-03   3.460668e-02   5.901740e-02   1.323045e+02   4.431432e+05   4.431501e+05   4.431507e+05   1.575303e+03   1.575303e+03   1.589610e-01   1.260764e-01   9.681605e-02  -7.128815e+01   5.860322e+01  -1.089618e+02  -6.141225e+01  -4.349035e+01   8.009756e-02   1.385225e-01  -9.871149e-01  -2.111116e-01  -9.654741e-01  -1.526159e-01  -9.741747e-01   2.206156e-01  -4.808841e-02  -1.834890e+05   1.060120e+05   3.321012e+05   5.555754e-01  -3.877471e-01  -7.355190e-01   1.396070e-01  -8.285443e-01   5.422401e-01  -8.196621e-01  -4.039388e-01  -4.061866e-01  -1.059562e-01   1.562720e-02   6.651550e-02   1.107494e-01   1.383186e-01  -9.841761e-01   6.644365e-02  -9.890828e-01  -1.315313e-01  -9.916248e-01  -5.082525e-02  -1.187307e-01
