VARIABLES=
 x y z nomin_den nomin_voidr fabric_xx fabric_yy fabric_zz fabric_xy fabric_xz fabric_yz sigma_xx sigma_yy sigma_zz sigma_xy sigma_xz sigma_yz sigmaDot_xx sigmaDot_yy sigmaDot_zz sigmaDot_xy sigmaDot_xz sigmaDot_yz Oldro_xx Oldro_xy Oldro_xz Oldro_yx Oldro_yy Oldro_yz Oldro_zx Oldro_zy Oldro_zz Trues_xx Trues_xy Trues_xz Trues_yx Trues_yy Trues_yz Trues_zx Trues_zy Trues_zz F_xX F_xY F_xZ F_yX F_yY F_yZ F_zX F_zY F_zZ R_xX R_xY R_xZ R_yX R_yY R_yZ R_zX R_zY R_zZ U_xX U_yY U_zZ U_xY U_xZ U_yZ Green_xx Green_yy Green_zz Green_xy Green_xz Green_yz Green_vol Green_shr Euler_xx Euler_yy Euler_zz Euler_xy Euler_xz Euler_yz Euler_vol Euler_shr l_xx l_xy l_xz l_yx l_yy l_yz l_zx l_zy l_zz d_xx d_yy d_zz d_xy d_xz d_yz w_xy w_xz w_yz norm_sigma norm_sigmaDot norm_Oldro norm_Trues norm_F norm_U norm_l norm_d norm_w p q sigma_1 sigma_2 sigma_3 sigma_1_v1 sigma_1_v2 sigma_1_v3 sigma_2_v1 sigma_2_v2 sigma_2_v3 sigma_3_v1 sigma_3_v2 sigma_3_v3 sigmaDot_1 sigmaDot_2 sigmaDot_3 sigmaDot_1_v1 sigmaDot_1_v2 sigmaDot_1_v3 sigmaDot_2_v1 sigmaDot_2_v2 sigmaDot_2_v3 sigmaDot_3_v1 sigmaDot_3_v2 sigmaDot_3_v3 d_1 d_2 d_3 d_1_v1 d_1_v2 d_1_v3 d_2_v1 d_2_v2 d_2_v3 d_3_v1 d_3_v2 d_3_v3
ZONE T="stress" N=27, E=8, DATAPACKING=BLOCK, VARLOCATION=([4,5,6,7,8,9,10,11,12,13,14,15,16,17,18,19,20,21,22,23,24,25,26,27,28,29,30,31,32,33,34,35,36,37,38,39,40,41,42,43,44,45,46,47,48,49,50,51,52,53,54,55,56,57,58,59,60,61,62,63,64,65,66,67,68,69,70,71,72,73,74,75,76,77,78,79,80,81,82,83,84,85,86,87,88,89,90,91,92,93,94,95,96,97,98,99,100,101,102,103,104,105,106,107,108,109,110,111,112,113,114,115,116,117,118,119,120,121,122,123,124,125,126,127,128,129,130,131,132,133,134,135,136,137,138,139,140,141,142,143,144,145,146]=CELLCENTERED), ZONETYPE=FEBRICK, STRANDID=4, SOLUTIONTIME=44
   0.000000e+00   0.000000e+00   0.000000e+00   0.000000e+00   0.000000e+00   0.000000e+00   0.000000e+00   0.000000e+00   0.000000e+00   1.000000e-02   1.000000e-02   1.000000e-02   1.000000e-02   1.000000e-02   1.000000e-02   1.000000e-02   1.000000e-02   1.000000e-02   2.000000e-02   2.000000e-02   2.000000e-02   2.000000e-02   2.000000e-02   2.000000e-02   2.000000e-02   2.000000e-02   2.000000e-02
   0.000000e+00   0.000000e+00   0.000000e+00   1.000000e-02   1.000000e-02   1.000000e-02   2.000000e-02   2.000000e-02   2.000000e-02   0.000000e+00   0.000000e+00   0.000000e+00   1.000000e-02   1.000000e-02   1.000000e-02   2.000000e-02   2.000000e-02   2.000000e-02   0.000000e+00   0.000000e+00   0.000000e+00   1.000000e-02   1.000000e-02   1.000000e-02   2.000000e-02   2.000000e-02   2.000000e-02
   0.000000e+00   1.050655e-02   2.101310e-02   0.000000e+00   1.050655e-02   2.101310e-02   0.000000e+00   1.050655e-02   2.101310e-02   0.000000e+00   1.050655e-02   2.101310e-02   0.000000e+00   1.050655e-02   2.101310e-02   0.000000e+00   1.050655e-02   2.101310e-02   0.000000e+00   1.050655e-02   2.101310e-02   0.000000e+00   1.050655e-02   2.101310e-02   0.000000e+00   1.050655e-02   2.101310e-02
   1.575477e+03   1.087368e+03   1.524977e+03   1.197247e+03   1.713035e+03   1.115058e+03   1.596827e+03   1.193231e+03
   6.820305e-01   1.437076e+00   7.377309e-01   1.213411e+00   5.469623e-01   1.376559e+00   6.595413e-01   1.220861e+00
   3.406830e-01   3.564787e-01   3.310468e-01   3.401717e-01   3.321955e-01   3.330019e-01   3.125651e-01   3.295687e-01
   3.072541e-01   3.196542e-01   3.223617e-01   3.265153e-01   3.199124e-01   3.613500e-01   3.302641e-01   3.120910e-01
   3.520629e-01   3.238671e-01   3.465915e-01   3.333130e-01   3.478921e-01   3.056481e-01   3.571708e-01   3.583403e-01
   6.659652e-03  -1.130126e-02  -4.789039e-04   1.688588e-02   4.590968e-03   1.096332e-02  -1.738039e-03  -1.015338e-02
  -4.544256e-04   2.350286e-02   1.568588e-03   1.971143e-02  -1.143786e-02   3.956542e-03   1.039680e-02  -9.363665e-03
   5.926018e-04   3.392460e-04   1.543029e-02   1.258165e-03   2.026833e-02   2.199390e-03   2.070549e-02  -6.333302e-03
  -3.169322e+02  -6.729487e+01  -2.982598e+02  -1.009582e+02  -2.893266e+02  -1.123148e+02  -3.141312e+02  -7.720048e+01
  -2.445716e+02  -7.683676e+01  -2.536098e+02  -8.770823e+01  -2.590035e+02  -1.196967e+02  -3.487925e+02  -7.534868e+01
  -3.733431e+02  -1.060198e+02  -2.909758e+02  -1.334551e+02  -3.698881e+02  -1.337205e+02  -3.554037e+02  -1.001878e+02
  -2.420105e+01   8.038486e+00  -7.158646e+00  -1.022931e+01   1.823266e+01  -1.834473e+00  -4.053753e+01   4.764284e-01
   2.394226e+01   7.153344e-01   2.961895e+01  -9.287389e+00  -3.831590e+00   1.055233e+00   1.806924e+01   1.207663e+01
  -2.606801e+01   1.491418e+00  -3.486698e+01  -1.426114e+00  -4.826842e+01   1.543571e+01   2.116834e+01   4.103013e+00
  -1.029550e+01   7.682595e+00  -1.109449e+00   5.220512e-01  -1.784148e+02  -2.043981e+01   4.601453e+01   2.224406e+00
   5.814858e+00   6.463660e+00  -4.230255e-01  -1.825379e+00  -5.539103e+01   3.543643e+01   5.124342e+01  -4.939781e+00
  -5.909007e+00   9.691275e+00  -1.024056e+00   2.176990e+00  -2.913810e+01   5.448175e+01   5.375849e+01  -6.529947e-01
  -6.885538e+00  -1.116870e+01  -2.301750e-01   1.252333e+00  -4.489850e+02  -1.996886e+00   7.385747e+00   8.220593e-01
   3.410744e+00  -1.305802e+01  -3.721086e-01  -3.627274e-01   2.799105e+02  -3.083742e+01  -2.582506e+00  -1.158008e+00
  -4.791264e+00   2.895610e+00   2.955158e-01   1.285130e+00   6.717384e+01   2.942875e+01  -3.874869e+00  -2.567083e+00
  -2.255043e+01   7.682626e+00  -3.682842e+00   5.220532e-01  -1.784010e+02  -2.043987e+01   7.717865e+01   2.224400e+00
  -1.257148e+01  -5.905822e+00   4.055509e+00   1.419795e+00  -1.158690e+02   6.420085e+00  -2.980253e+01   7.373031e-01
   4.467107e+00  -1.431819e+01   2.293910e+00  -1.329161e-01   6.766362e+02  -2.798883e+01  -3.554065e+01  -1.270386e+00
  -1.461181e+01  -1.643158e+01   4.457810e+00   1.084875e+00  -7.823730e+02  -1.041401e+01  -2.962821e+01   9.068395e-01
   3.821416e+00   6.463678e+00  -5.386856e-01  -1.825389e+00  -5.544250e+01   3.543666e+01   9.691630e+01  -4.939823e+00
  -4.175132e+00   1.268092e+00  -3.356874e-01   1.382578e+00  -2.599302e+02   5.430321e+01  -2.950777e+01  -2.307163e+00
   3.716153e+00  -1.179789e+01   1.824851e+00  -5.925345e-01  -1.171287e+02  -3.368653e+01  -3.525136e+01  -1.045640e+00
  -4.138966e+00   4.523101e+00  -2.649809e-01   1.187706e+00   3.942157e+02   4.554918e+00  -3.091842e+01  -2.827053e+00
  -5.906188e+00   9.691255e+00  -1.057755e+00   2.177000e+00  -2.914073e+01   5.448214e+01   7.054624e+01  -6.529680e-01
  -1.573851e+01   7.682609e+00  -2.450303e+00   5.220549e-01  -1.783750e+02  -2.044015e+01   3.138929e+01   2.224416e+00
  -1.205132e+01  -5.905820e+00   4.085092e+00   1.419796e+00  -1.158707e+02   6.420081e+00  -3.571176e+01   7.373030e-01
   3.952505e+00  -1.431819e+01   2.171512e+00  -1.329160e-01   6.766366e+02  -2.798883e+01  -3.290691e+01  -1.270389e+00
  -1.409165e+01  -1.643158e+01   4.487393e+00   1.084875e+00  -7.823746e+02  -1.041402e+01  -3.553689e+01   9.068394e-01
   9.078074e+00   6.463659e+00   5.093409e-01  -1.825388e+00  -5.541923e+01   3.543637e+01   4.607455e+01  -4.939807e+00
  -3.614844e+00   1.268092e+00  -1.916018e-01   1.382578e+00  -2.599259e+02   5.430325e+01  -2.642293e+01  -2.307164e+00
   3.201557e+00  -1.179789e+01   1.702453e+00  -5.925344e-01  -1.171284e+02  -3.368653e+01  -3.261736e+01  -1.045643e+00
  -3.578677e+00   4.523101e+00  -1.208953e-01   1.187706e+00   3.942201e+02   4.554957e+00  -2.783205e+01  -2.827054e+00
   2.118198e+00   9.691230e+00   1.446838e-01   2.177002e+00  -2.910750e+01   5.448181e+01   1.874079e+01  -6.529475e-01
   5.032531e+02   4.045324e+02  -4.836717e+02  -5.269628e+02  -7.256730e+00  -1.124083e+03   5.920252e+02  -6.868624e+02
  -8.528039e+02  -1.217120e+03   4.883622e+01  -1.392393e+02  -1.216478e+02   1.271325e+03  -2.632589e+02   6.663999e+02
  -2.714640e-03   1.976895e-02  -1.250734e+00  -2.412803e-02  -2.038530e-02   1.067151e+01   4.548305e-03  -2.046772e-02
  -3.362902e+02  -1.073970e+03  -3.695414e+02  -8.113077e+02  -1.149847e+03   5.422837e+02  -1.215594e+03  -8.595599e+02
  -1.006627e+03   1.174091e+03   1.875143e+02   1.192817e+03   4.503920e+02  -2.595663e+02   1.021938e+03   5.223412e+02
   2.803657e-03  -1.298038e-03  -1.066125e+00   6.143853e-03   1.728053e-03  -1.056540e+01  -4.830655e-03  -1.319020e-02
  -8.373288e+01  -1.136228e+02  -5.525808e+02   4.251995e+02   1.262887e+03   1.155394e+03  -8.184689e+02   4.212961e+02
   1.692152e+02  -8.644495e+02  -5.913877e+02  -6.317936e+02  -8.441362e+02   5.020247e+02   7.705387e+02  -3.533681e+02
   1.988995e-02   2.675489e-02  -5.652647e-01   1.806263e-02   1.515196e-02   3.861076e+00   9.130782e-03   1.196912e-02
   7.726130e-01   6.245661e-03  -6.535778e-01  -8.716515e-01  -2.039292e-01  -5.138166e-01   8.184969e-01  -9.087297e-02
  -6.102311e-01  -6.724524e-01   2.625005e-01  -4.900834e-01  -4.244701e-01   8.180652e-01   5.125848e-01   9.288243e-01
   1.751775e-01  -7.401141e-01  -7.098800e-01  -6.475777e-03  -8.821780e-01  -2.583831e-01  -2.594604e-01   3.592039e-01
  -6.221053e-01  -8.660895e-01  -5.572258e-01  -4.358839e-01  -8.860358e-01   3.000325e-01  -5.473778e-01  -9.737723e-01
  -7.827476e-01   3.663227e-01   4.678322e-01   7.690765e-01  -3.032141e-01  -1.108089e-01   5.586308e-01  -1.584258e-01
   1.706647e-02  -3.401420e-01   6.860266e-01   4.674682e-01   3.507160e-01  -9.474713e-01  -6.231445e-01   1.633060e-01
  -1.267053e-01  -4.998499e-01  -5.121870e-01   2.241180e-01   4.163573e-01   8.037244e-01  -1.744718e-01   2.085898e-01
   1.221646e-01  -6.431294e-01  -8.439352e-01  -4.102921e-01  -8.531625e-01   5.643498e-01   6.520647e-01  -3.349427e-01
   9.843889e-01   5.801160e-01   1.594927e-01   8.839862e-01   3.142615e-01   1.885107e-01   7.378151e-01   9.188600e-01
   6.086372e+02   9.894754e+02   8.050598e+02   9.082587e+02   1.546098e+03   1.668894e+03   1.292760e+03   9.873109e+02
   1.329015e+03   1.804504e+03   5.996376e+02   1.244827e+03   6.352561e+02   1.352107e+03   9.383845e+02   6.545742e+02
   1.915175e-02   1.331180e-03   6.632569e-02   1.899542e-02   2.335120e-02   7.980928e+00   8.566921e-03   1.491819e-03
  -5.409957e+01  -5.923744e+02   1.664950e+02  -5.401581e+02  -7.257182e+02  -3.276168e+02  -9.092998e+02  -6.429081e+02
  -6.361699e-03  -1.212574e-02   1.701046e+00   2.240139e-02   8.934669e-03  -5.549919e+00   4.773903e-03   1.720085e-02
   1.891852e-03  -3.097603e-02  -3.500392e-01   9.138885e-03  -4.798103e-03   1.207973e+01   5.586700e-03  -2.093021e-02
   1.866825e+05   6.649839e+05   3.379219e+05   5.583518e+05   1.458542e+06   1.446285e+06   1.249026e+06   6.940563e+05
   8.846030e+05   1.803571e+06   1.936425e+05   9.206815e+05   4.651081e+05   9.678349e+05   8.536953e+05   4.208986e+05
  -4.997946e-01  -4.994458e-01   1.010242e+00  -4.995269e-01  -4.996759e-01   1.197083e+02  -4.999363e-01  -4.996319e-01
  -5.241307e+04  -8.275409e+05   1.169372e+05  -5.815032e+05  -7.915241e+05  -4.948988e+05  -1.014389e+06  -5.277906e+05
  -1.987218e+00   3.175634e+00   6.556383e+02   7.705120e+00   8.648076e+00  -6.632021e+03   5.457822e-01   1.521941e+01
   1.429250e+00  -2.435672e+01   3.664786e+01  -3.618948e-01  -4.766094e+00   9.123866e+03   4.508057e-01  -1.237949e+01
   3.570950e+05   8.228515e+05   1.771885e+05   4.930109e+05   6.412166e+05   8.047466e+05   7.009070e+05   3.716515e+05
   5.417974e+05   1.422080e+06   2.378387e+05   8.588845e+05   1.255180e+06   1.024922e+06   1.383961e+06   7.310363e+05
  -4.133652e+01  -1.548284e+05  -6.499771e+01   4.427039e-01  -7.131185e+02   4.994273e-01  -4.583030e+02  -2.902746e+04
   1.032145e-01  -3.270283e+04  -6.133576e+01  -3.023472e+02  -1.122909e+02   4.927722e-01  -2.645238e+03  -5.996923e+03
  -1.320455e+03  -9.510758e+04  -2.830715e+00  -1.082465e+03  -9.005778e+01   4.997233e-01  -3.708374e+03  -1.899023e+05
  -4.074320e+00  -7.115772e+04   6.364040e+01   4.165501e+00   2.837070e+02  -2.034181e-03  -1.101759e+03  -1.319443e+04
  -2.350833e+02   1.213486e+05   1.477004e+01   7.877033e+00   2.542119e+02   3.976825e-04   1.304470e+03  -7.424615e+04
  -2.289399e+01   5.577053e+04  -1.435121e+01  -5.726893e+02  -1.010648e+02   1.413318e-03   3.132524e+03  -3.374800e+04
  -4.538962e+02  -9.421294e+04  -4.305473e+01  -4.614567e+02  -3.051557e+02   4.973076e-01  -2.270638e+03  -7.497557e+04
   9.087924e+02   1.884269e+05   8.710946e+01   9.239133e+02   6.113114e+02   5.384273e-03   4.542276e+03   1.499521e+05
  -1.906967e-02   2.215003e-07  -3.549078e-03   9.797981e-09  -5.302949e-07  -2.590980e-07   4.704860e-02  -3.856702e-08
  -2.645056e-03  -2.902910e-08   7.173398e-04   8.516824e-09  -4.649155e-04  -8.862160e-07   2.275849e-03   1.859258e-07
   8.210325e-04  -1.451145e-07   7.876193e-03  -6.656959e-09  -3.659887e-04  -1.685260e-06  -3.931364e-02  -1.482361e-08
  -1.748760e-02   8.127380e-09   1.355150e-02   1.552926e-08   2.272009e-06   3.354276e-08  -1.431512e-01  -5.112658e-08
  -2.425161e-03   1.142500e-07  -5.287838e-04  -6.086692e-08  -8.886883e-05   1.227802e-06   7.820128e-02  -2.884540e-07
   7.527583e-04  -8.836242e-08  -5.947097e-04   8.341060e-08  -5.542905e-05   1.979971e-06  -6.440834e-02  -1.394892e-07
  -4.131111e-05  -6.539756e-08   2.680989e-05   2.454307e-08   2.136614e-06  -4.522858e-07  -5.530955e-02  -3.076762e-08
  -5.457322e-06  -6.146292e-08  -5.025329e-06   1.075207e-08  -2.414037e-05   7.645054e-07  -4.880028e-03  -1.650625e-07
   1.506282e-06  -9.596256e-08  -5.457534e-05   3.476999e-08  -4.263334e-07   1.524781e-06   2.051517e-02   1.232038e-07
  -1.906967e-02   2.215003e-07  -3.549078e-03   9.797981e-09  -5.302949e-07  -2.590980e-07   4.704860e-02  -3.856702e-08
  -2.425161e-03   1.142500e-07  -5.287838e-04  -6.086692e-08  -8.886883e-05   1.227802e-06   7.820128e-02  -2.884540e-07
   1.506282e-06  -9.596256e-08  -5.457534e-05   3.476999e-08  -4.263334e-07   1.524781e-06   2.051517e-02   1.232038e-07
  -1.006633e-02  -1.045086e-08   7.134422e-03   1.202304e-08  -2.313217e-04  -4.263366e-07  -7.043766e-02   6.739960e-08
   3.898607e-04  -1.052560e-07   3.951501e-03   8.943055e-09  -1.819260e-04  -1.068773e-06  -4.731159e-02  -2.279562e-08
   3.736505e-04  -7.491267e-08  -2.998675e-04   4.708133e-08  -3.978471e-05   1.372238e-06  -3.464418e-02  -1.522759e-07
   7.421272e-03  -1.857824e-08  -6.417082e-03  -3.506219e-09  -2.335937e-04  -4.598794e-07   7.271351e-02   1.185262e-07
   4.311718e-04  -3.985849e-08   3.924691e-03  -1.560001e-08  -1.840627e-04  -6.164869e-07   7.997954e-03   7.972004e-09
   3.791078e-04  -1.344975e-08  -2.948422e-04   3.632926e-08  -1.564434e-05   6.077326e-07  -2.976416e-02   1.278669e-08
   5.507480e+02   1.476733e+02   4.921709e+02   1.899511e+02   5.412613e+02   2.128581e+02   5.928593e+02   1.483265e+02
   1.846863e+01   2.942556e+01   1.791508e+00   3.902238e+00   1.164366e+03   9.838257e+01   8.824238e+01   6.867601e+00
   3.158929e+01   2.942559e+01   7.750264e+00   3.902258e+00   1.164392e+03   9.838324e+01   1.625563e+02   6.867650e+00
   2.702136e+01   2.942557e+01   7.125598e+00   3.902259e+00   1.164388e+03   9.838302e+01   9.806692e+01   6.867644e+00
   1.463753e+03   2.221961e+03   1.031084e+03   1.719904e+03   1.961454e+03   2.197381e+03   2.050718e+03   1.493289e+03
   1.463753e+03   2.221961e+03   1.031084e+03   1.719904e+03   1.961454e+03   2.197381e+03   2.050718e+03   1.493289e+03
   2.614553e-02   3.303841e-07   1.610668e-02   1.142061e-07   6.013794e-04   3.497929e-06   1.949981e-01   4.300278e-07
   2.393280e-02   3.239200e-07   1.208665e-02   9.945905e-08   4.292755e-04   3.211501e-06   1.598437e-01   3.954401e-07
   1.052662e-02   6.503455e-08   1.064604e-02   5.613323e-08   4.211647e-04   1.386279e-06   1.116882e-01   1.689705e-07
  -3.116157e+02  -8.338382e+01  -2.809484e+02  -1.073738e+02  -3.060727e+02  -1.219106e+02  -3.394425e+02  -8.424566e+01
   1.342220e+02   3.772559e+01   9.030035e+01   4.733859e+01   1.337206e+02   3.290766e+01   9.342501e+01   3.260574e+01
  -3.841925e+02  -1.060984e+02  -3.295939e+02  -1.362684e+02  -3.880322e+02  -1.437749e+02  -3.949152e+02  -1.057895e+02
  -3.206553e+02  -8.137762e+01  -2.873383e+02  -1.039178e+02  -2.954636e+02  -1.125396e+02  -3.362315e+02  -7.597888e+01
  -2.299992e+02  -6.267545e+01  -2.259131e+02  -8.193528e+01  -2.347223e+02  -1.094174e+02  -2.871808e+02  -7.096861e+01
  -2.919873e-01   8.342120e-03  -6.263306e-01   2.767079e-01   2.912597e-02  -5.972144e-02  -4.661934e-01  -3.847779e-01
   1.263922e-01   4.861482e-02   2.756068e-01   8.640725e-02  -3.537863e-01  -5.419513e-01  -6.732150e-01  -1.173769e-01
   9.480340e-01  -9.987828e-01   7.292125e-01   9.570614e-01  -9.348727e-01   8.382852e-01   5.739732e-01   9.155155e-01
  -9.021767e-01  -4.968277e-01  -7.180856e-01  -8.222644e-01  -9.470077e-01  -9.427241e-01   2.684871e-01  -4.635282e-01
  -3.654764e-01   8.670146e-01  -5.680564e-01  -4.941271e-01   2.895415e-01  -2.454749e-01   5.105273e-01   8.823081e-01
  -2.291381e-01   3.805148e-02  -4.020760e-01   2.823468e-01  -1.390759e-01  -2.258614e-01   8.168700e-01  -8.169479e-02
   3.175227e-01   8.678091e-01  -3.034189e-01   4.973068e-01   3.198876e-01  -3.281838e-01  -8.429581e-01  -7.981777e-01
  -9.221996e-01   4.959055e-01   7.754694e-01  -8.650851e-01   8.893824e-01   8.037604e-01   5.349238e-01  -4.558016e-01
   2.207426e-01   3.138593e-02  -5.537004e-01  -6.567927e-02  -3.266052e-01   4.962505e-01  -5.725495e-02  -3.939002e-01
  -1.368398e+01  -1.083470e+01  -1.708821e+00  -2.614954e+00  -9.414539e+02  -3.430588e+01   4.067317e+01  -6.358545e+00
  -7.600565e+00   4.383520e+00  -6.844299e-01   9.387157e-01  -1.512759e+02   3.446760e+01   4.985150e+01  -3.620178e-02
   1.089490e+01   3.028871e+01  -1.632806e-01   2.549900e+00   8.297858e+02   6.931664e+01   6.049179e+01   3.026378e+00
   9.281891e-01   7.312083e-01  -6.978338e-01   3.595668e-01  -6.830225e-01   9.305895e-01  -8.031701e-01   4.161269e-02
   3.384973e-01   6.204234e-01   1.636831e-01  -8.943634e-01  -6.982876e-01   1.162878e-01   5.929307e-01  -8.982755e-01
  -1.545465e-01   2.835653e-01  -6.973061e-01   2.661313e-01   2.141837e-01   3.471028e-01   5.788764e-02  -4.374580e-01
  -2.832376e-02  -1.545599e-01  -6.093928e-01   9.187806e-01   4.305733e-01  -2.377020e-02  -3.988435e-01  -5.065127e-01
  -3.498520e-01   5.555620e-01  -6.472651e-01   3.891433e-01  -1.480734e-01   9.653960e-01  -4.629841e-01   3.584383e-01
  -9.363767e-01  -8.169835e-01   4.579174e-01   6.640541e-02   8.903263e-01  -2.597026e-01  -7.915615e-01  -7.841982e-01
   3.710294e-01   6.644138e-01   3.763886e-01   1.629538e-01   5.899889e-01  -3.652920e-01   4.425401e-01   8.612277e-01
  -8.735119e-01  -5.535573e-01  -7.444836e-01  -2.206391e-01  -7.003347e-01   2.334258e-01   6.588466e-01   2.542106e-01
   3.151413e-01  -5.021241e-01  -5.514307e-01  -9.616467e-01  -4.018015e-01   9.011516e-01  -6.083416e-01  -4.400724e-01
  -2.381946e-02  -1.489419e-07  -1.039200e-02  -8.082407e-08  -3.469513e-04  -7.886890e-07  -5.498820e-02  -3.491907e-07
  -2.757647e-07   1.344267e-07   8.819702e-05   6.985841e-09   4.374660e-06   1.738832e-07   6.591370e-02  -3.656528e-08
   2.326410e-03   2.543029e-07   6.171362e-03   5.753928e-08   2.527511e-04   3.108291e-06   1.348396e-01   1.819387e-07
   9.044910e-01   2.700285e-01  -7.660637e-01  -8.619957e-02   6.457224e-01  -8.611961e-01  -6.211883e-01   1.820609e-01
   4.259513e-01   2.734922e-01   5.635216e-01   9.249924e-01   6.423960e-01   1.486768e-01  -4.880091e-01  -9.383979e-01
  -2.148453e-02   9.231937e-01   3.091761e-01  -3.700794e-01   4.127589e-01  -4.860417e-01  -6.131657e-01  -2.937061e-01
  -5.096268e-02  -1.684081e-01   5.361674e-03  -9.612680e-01  -1.140561e-01  -4.032476e-01  -4.593131e-01   9.636342e-01
   5.792869e-02   9.574467e-01   4.865954e-01   2.038848e-02   6.156445e-01  -7.819752e-01  -4.072272e-01   1.108555e-01
  -9.970191e-01  -2.343812e-01  -8.736110e-01   2.748601e-01  -7.797263e-01   4.752959e-01   7.894285e-01   2.431463e-01
  -4.234370e-01  -9.480102e-01  -6.427423e-01   2.617889e-01  -7.550058e-01   3.094071e-01  -6.349461e-01   1.956090e-01
   9.028897e-01  -9.218369e-02  -6.675839e-01   3.794383e-01   4.564090e-01  -6.053181e-01   7.720189e-01   3.272927e-01
   7.410359e-02   3.045962e-01  -3.757845e-01   8.874081e-01   4.708046e-01  -7.333875e-01   2.881580e-02  -9.244548e-01
      10      13       4       1      11      14       5       2
      11      14       5       2      12      15       6       3
      13      16       7       4      14      17       8       5
      14      17       8       5      15      18       9       6
      19      22      13      10      20      23      14      11
      20      23      14      11      21      24      15      12
      22      25      16      13      23      26      17      14
      23      26      17      14      24      27      18      15
