     VARIABLES=
              x              y              z      nomin_den    nomin_voidr      fabric_xx      fabric_yy      fabric_zz      fabric_xy      fabric_xz      fabric_yz       sigma_xx       sigma_yy       sigma_zz       sigma_xy       sigma_xz       sigma_yz    sigmaDot_xx    sigmaDot_yy    sigmaDot_zz    sigmaDot_xy    sigmaDot_xz    sigmaDot_yz       Oldro_xx       Oldro_xy       Oldro_xz       Oldro_yx       Oldro_yy       Oldro_yz       Oldro_zx       Oldro_zy       Oldro_zz       Trues_xx       Trues_xy       Trues_xz       Trues_yx       Trues_yy       Trues_yz       Trues_zx       Trues_zy       Trues_zz           F_xX           F_xY           F_xZ           F_yX           F_yY           F_yZ           F_zX           F_zY           F_zZ           R_xX           R_xY           R_xZ           R_yX           R_yY           R_yZ           R_zX           R_zY           R_zZ           U_xX           U_yY           U_zZ           U_xY           U_xZ           U_yZ       Green_xx       Green_yy       Green_zz       Green_xy       Green_xz       Green_yz      Green_vol      Green_shr       Euler_xx       Euler_yy       Euler_zz       Euler_xy       Euler_xz       Euler_yz      Euler_vol      Euler_shr           l_xx           l_xy           l_xz           l_yx           l_yy           l_yz           l_zx           l_zy           l_zz           d_xx           d_yy           d_zz           d_xy           d_xz           d_yz           w_xy           w_xz           w_yz     norm_sigma  norm_sigmaDot     norm_Oldro     norm_Trues         norm_F         norm_U         norm_l         norm_d         norm_w              p              q        sigma_1        sigma_2        sigma_3     sigma_1_v1     sigma_1_v2     sigma_1_v3     sigma_2_v1     sigma_2_v2     sigma_2_v3     sigma_3_v1     sigma_3_v2     sigma_3_v3     sigmaDot_1     sigmaDot_2     sigmaDot_3  sigmaDot_1_v1  sigmaDot_1_v2  sigmaDot_1_v3  sigmaDot_2_v1  sigmaDot_2_v2  sigmaDot_2_v3  sigmaDot_3_v1  sigmaDot_3_v2  sigmaDot_3_v3            d_1            d_2            d_3         d_1_v1         d_1_v2         d_1_v3         d_2_v1         d_2_v2         d_2_v3         d_3_v1         d_3_v2         d_3_v3
ZONE I=2, J=2, K=2, DATAPACKING=POINT, STRANDID=5, SOLUTIONTIME=14
   5.000000e-03   5.000000e-03   9.743527e-03   1.448333e+03   8.296894e-01   3.287819e-01   3.018910e-01   3.659024e-01  -1.138206e-02  -8.074122e-03   5.434894e-03  -2.021440e+02  -1.449227e+02  -2.518539e+02  -1.289898e+01   6.049373e+00  -6.788562e+00   5.965122e+04   1.082196e+05  -1.098483e+05   1.782642e+05   1.284231e+06   5.696084e+05   5.967910e+04  -1.321490e+05   2.625372e+06   4.883967e+05   1.082366e+05   7.945012e+04  -5.744785e+04   1.060032e+06  -1.105770e+05   5.994596e+04  -1.321298e+05   2.625366e+06   4.884116e+05   1.084279e+05   7.946129e+04  -5.745832e+04   1.060039e+06  -1.102445e+05   1.387954e+02  -9.525290e+02   3.228837e-01  -6.494636e+02  -1.787949e+02   8.282000e-01  -1.581855e+01  -2.621605e+02  -5.744873e-02   1.990185e-01  -9.472325e-01   2.512810e-01  -9.796037e-01  -1.850363e-01   7.834600e-02  -2.771577e-02  -2.617481e-01  -9.647382e-01   6.642783e+02   1.003970e+03   2.014437e-01  -7.156731e+00  -7.454558e-01  -4.440559e-01   2.206582e+05   5.040032e+05  -1.032652e-01  -5.969437e+03  -2.460811e+02  -2.202866e+02   2.415538e+05   2.918174e+05  -2.848379e-01   4.258807e-01  -1.109079e+01  -2.411859e-01   3.016104e+00   9.268699e-01  -3.649916e+00   8.299830e+00   4.427474e-02  -4.416478e-01  -1.767311e+00  -3.021348e-01   5.092094e-02   7.375068e-01   8.691499e-01  -3.918835e-01  -1.415306e+00   4.427474e-02   5.092094e-02  -1.415306e+00  -3.718913e-01  -4.490805e-01   1.728117e-01  -6.975652e-02  -1.318230e+00   5.646951e-01   3.546991e+02   2.882774e+06   2.882595e+06   2.882595e+06   1.203879e+03   1.203879e+03   2.621122e+00   1.657506e+00   2.030506e+00  -1.996402e+02   9.610494e+01  -2.531944e+02  -2.033209e+02  -1.424052e+02  -1.467205e-01   3.150514e-02   9.886761e-01  -9.703235e-01  -1.988001e-01  -1.376620e-01   1.922118e-01  -9.795335e-01   5.973822e-02  -1.180841e+06   7.344625e+04   1.165417e+06  -2.956285e-01   6.710715e-01  -6.799021e-01  -9.082123e-01   2.326449e-02   4.178626e-01  -2.962332e-01  -7.410276e-01  -6.025977e-01  -1.545226e+00  -2.962614e-01   5.213762e-01   2.622426e-01  -4.327302e-02   9.640312e-01  -6.400711e-01  -7.554142e-01   1.402080e-01   7.221757e-01  -6.538171e-01  -2.257996e-01
   5.000000e-03   5.000000e-03   2.923058e-02   0.000000e+00   0.000000e+00   0.000000e+00   0.000000e+00   0.000000e+00   0.000000e+00   0.000000e+00   0.000000e+00   0.000000e+00   0.000000e+00   0.000000e+00   0.000000e+00   0.000000e+00   0.000000e+00   0.000000e+00   0.000000e+00   0.000000e+00   0.000000e+00   0.000000e+00   0.000000e+00   0.000000e+00   0.000000e+00   0.000000e+00   0.000000e+00   0.000000e+00   0.000000e+00   0.000000e+00   0.000000e+00   0.000000e+00   0.000000e+00   0.000000e+00   0.000000e+00   0.000000e+00   0.000000e+00   0.000000e+00   0.000000e+00   0.000000e+00   0.000000e+00   0.000000e+00   0.000000e+00   0.000000e+00   0.000000e+00   0.000000e+00   0.000000e+00   0.000000e+00   0.000000e+00   0.000000e+00   0.000000e+00   0.000000e+00   0.000000e+00   0.000000e+00   0.000000e+00   0.000000e+00   0.000000e+00   0.000000e+00   0.000000e+00   0.000000e+00   0.000000e+00   0.000000e+00   0.000000e+00   0.000000e+00   0.000000e+00   0.000000e+00   0.000000e+00   0.000000e+00   0.000000e+00   0.000000e+00   0.000000e+00   0.000000e+00   0.000000e+00   0.000000e+00   0.000000e+00   0.000000e+00   0.000000e+00   0.000000e+00   0.000000e+00   0.000000e+00   0.000000e+00   0.000000e+00   0.000000e+00   0.000000e+00   0.000000e+00   0.000000e+00   0.000000e+00   0.000000e+00   0.000000e+00   0.000000e+00   0.000000e+00   0.000000e+00   0.000000e+00   0.000000e+00   0.000000e+00   0.000000e+00   0.000000e+00   0.000000e+00   0.000000e+00   0.000000e+00   0.000000e+00   0.000000e+00   0.000000e+00   0.000000e+00   0.000000e+00   0.000000e+00   0.000000e+00   0.000000e+00   0.000000e+00   0.000000e+00   0.000000e+00   0.000000e+00   0.000000e+00   0.000000e+00   0.000000e+00   0.000000e+00   0.000000e+00   0.000000e+00   0.000000e+00   0.000000e+00   0.000000e+00   0.000000e+00   0.000000e+00   0.000000e+00   0.000000e+00   0.000000e+00   0.000000e+00   0.000000e+00   0.000000e+00   0.000000e+00   0.000000e+00   0.000000e+00   0.000000e+00   0.000000e+00   0.000000e+00   0.000000e+00   0.000000e+00   0.000000e+00   0.000000e+00   0.000000e+00   0.000000e+00   0.000000e+00   0.000000e+00   0.000000e+00   0.000000e+00   0.000000e+00
   5.000000e-03   1.500000e-02   9.743527e-03   1.415753e+03   8.717960e-01   3.338968e-01   3.019699e-01   3.605491e-01   3.634546e-03   1.548526e-03   1.419354e-02  -2.054710e+02  -1.287529e+02  -2.227974e+02  -4.201858e+00   1.811381e+01   9.710939e+00   1.224427e+04   7.960950e+04   2.531158e+05  -1.533481e+05   3.797930e+05  -1.374960e+05   1.249757e+04  -3.483625e+04   4.299449e+05  -2.721559e+05   7.939071e+04  -6.166913e+04   3.306216e+05  -2.131407e+05   2.519227e+05   1.305133e+04  -3.482405e+04   4.298951e+05  -2.721455e+05   7.973771e+04  -6.169548e+04   3.305738e+05  -2.131667e+05   2.525231e+05  -2.072241e+02  -1.402121e+02  -6.619550e-01  -2.016320e+02   2.505107e+02  -5.735189e-01   1.981129e+02  -5.479637e+02  -2.918682e-01  -8.342159e-01  -4.279794e-01   3.477319e-01  -4.942947e-01   3.008151e-01  -8.155876e-01   2.444517e-01  -8.522581e-01  -4.624926e-01   3.209643e+02   6.023719e+02   3.725588e-01  -1.408096e+02   7.643530e-01   3.595270e-01   6.142250e+04   1.913392e+05  -7.385233e-02  -6.500715e+04   9.749497e+01   5.453733e+01   8.425386e+04   1.354970e+05   5.030421e-02  -1.925126e+00  -2.806166e-01   1.044293e+00   5.924810e-01  -1.375896e+00  -7.184793e-01   2.436950e+00   8.380074e-01  -4.901979e-01   2.400133e+00  -3.073162e-01  -8.463003e-01  -8.849953e-02  -4.143417e-01   5.644204e-01  -2.686794e+00   8.380074e-01  -8.463003e-01  -2.686794e+00  -3.987570e-01   9.928958e-01   2.379604e-01  -9.144087e-02   1.407237e+00  -3.264600e-01   3.306281e+02   6.988895e+05   6.990006e+05   6.992191e+05   7.110036e+02   7.110036e+02   3.902666e+00   3.322693e+00   2.047073e+00  -1.856737e+02   9.372755e+01  -2.348754e+02  -1.944298e+02  -1.277160e+02   5.236986e-01   9.608942e-02  -8.464671e-01   8.514512e-01  -2.666040e-02   5.237558e-01  -2.776024e-02   9.950156e-01   9.577746e-02  -2.686247e+05  -5.860217e+04   6.721964e+05   8.302989e-01   4.359514e-01  -3.472033e-01   1.246430e-01  -7.524648e-01  -6.467310e-01   5.432015e-01  -4.937036e-01   6.791089e-01  -2.998862e+00  -8.483574e-01   1.152132e+00   2.625027e-01   1.539328e-01  -9.525739e-01  -1.184963e-01  -9.745790e-01  -1.901430e-01   9.576278e-01  -1.627896e-01   2.375891e-01
   5.000000e-03   1.500000e-02   2.923058e-02   0.000000e+00   0.000000e+00   0.000000e+00   0.000000e+00   0.000000e+00   0.000000e+00   0.000000e+00   0.000000e+00   0.000000e+00   0.000000e+00   0.000000e+00   0.000000e+00   0.000000e+00   0.000000e+00   0.000000e+00   0.000000e+00   0.000000e+00   0.000000e+00   0.000000e+00   0.000000e+00   0.000000e+00   0.000000e+00   0.000000e+00   0.000000e+00   0.000000e+00   0.000000e+00   0.000000e+00   0.000000e+00   0.000000e+00   0.000000e+00   0.000000e+00   0.000000e+00   0.000000e+00   0.000000e+00   0.000000e+00   0.000000e+00   0.000000e+00   0.000000e+00   0.000000e+00   0.000000e+00   0.000000e+00   0.000000e+00   0.000000e+00   0.000000e+00   0.000000e+00   0.000000e+00   0.000000e+00   0.000000e+00   0.000000e+00   0.000000e+00   0.000000e+00   0.000000e+00   0.000000e+00   0.000000e+00   0.000000e+00   0.000000e+00   0.000000e+00   0.000000e+00   0.000000e+00   0.000000e+00   0.000000e+00   0.000000e+00   0.000000e+00   0.000000e+00   0.000000e+00   0.000000e+00   0.000000e+00   0.000000e+00   0.000000e+00   0.000000e+00   0.000000e+00   0.000000e+00   0.000000e+00   0.000000e+00   0.000000e+00   0.000000e+00   0.000000e+00   0.000000e+00   0.000000e+00   0.000000e+00   0.000000e+00   0.000000e+00   0.000000e+00   0.000000e+00   0.000000e+00   0.000000e+00   0.000000e+00   0.000000e+00   0.000000e+00   0.000000e+00   0.000000e+00   0.000000e+00   0.000000e+00   0.000000e+00   0.000000e+00   0.000000e+00   0.000000e+00   0.000000e+00   0.000000e+00   0.000000e+00   0.000000e+00   0.000000e+00   0.000000e+00   0.000000e+00   0.000000e+00   0.000000e+00   0.000000e+00   0.000000e+00   0.000000e+00   0.000000e+00   0.000000e+00   0.000000e+00   0.000000e+00   0.000000e+00   0.000000e+00   0.000000e+00   0.000000e+00   0.000000e+00   0.000000e+00   0.000000e+00   0.000000e+00   0.000000e+00   0.000000e+00   0.000000e+00   0.000000e+00   0.000000e+00   0.000000e+00   0.000000e+00   0.000000e+00   0.000000e+00   0.000000e+00   0.000000e+00   0.000000e+00   0.000000e+00   0.000000e+00   0.000000e+00   0.000000e+00   0.000000e+00   0.000000e+00   0.000000e+00   0.000000e+00   0.000000e+00   0.000000e+00
   1.500000e-02   5.000000e-03   9.743527e-03   1.509402e+03   7.556628e-01   2.771156e-01   3.312440e-01   3.878381e-01   8.731332e-03   1.164353e-02   1.186620e-02  -1.841042e+02  -2.754586e+02  -4.019959e+02  -3.297988e+00  -2.501821e+01  -2.694157e+01   4.241090e+05   1.653508e+05   2.414441e+06   5.882145e+05  -1.432718e+06   2.435753e+06   4.241762e+05  -8.280155e+04  -3.028482e+06   1.259045e+06   1.652184e+05   8.955936e+05   1.630023e+05   3.976312e+06   2.414187e+06   4.242530e+05  -8.279999e+04  -3.028471e+06   1.259046e+06   1.653333e+05   8.956044e+05   1.630123e+05   3.976323e+06   2.414354e+06  -1.024720e+03   1.503563e+03   3.117282e+00  -1.066631e+02  -4.630621e+01  -2.129817e+00   1.269872e+03   2.392787e+02   7.017491e-01  -4.150355e-01   9.097063e-01  -1.341545e-02  -8.072813e-02  -5.150984e-02  -9.954043e-01   9.062166e-01   4.120451e-01  -9.481730e-02   1.584685e+03   1.468780e+03   2.011672e+00  -4.034554e+02  -4.859098e-01   3.234670e+00   1.337001e+06   1.160050e+06   6.873011e+00  -6.159693e+05  -1.038018e+03   2.476784e+03   8.323526e+05   1.099608e+06   4.999704e-01   3.767281e-01   4.988526e-01  -1.904484e-03  -1.838122e-04  -1.189109e-02   4.585170e-01   8.296543e-02   2.024000e-01  -1.048838e-01  -1.317339e-01  -4.091749e-01  -2.951668e-01   6.102716e-01   2.016416e-01  -7.010150e-02  -3.243067e-01   2.024000e-01  -2.951668e-01  -3.243067e-01  -2.570294e-01   3.495386e-02   2.700850e-01   1.521456e-01  -1.666877e-01   3.401865e-01   5.235473e+02   5.782590e+06   5.782645e+06   5.782729e+06   2.234752e+03   2.234752e+03   9.203518e-01   7.167479e-01   5.773386e-01  -2.871862e+02   1.999432e+02  -4.103762e+02  -2.696814e+02  -1.815012e+02   1.056336e-01   2.026426e-01   9.735387e-01  -2.360458e-02   9.792512e-01  -2.012705e-01   9.941249e-01   1.719050e-03  -1.082251e-01  -3.082572e+06   5.079997e+05   5.578473e+06   2.563994e-01  -7.867649e-01   5.614805e-01   9.509212e-01   1.012149e-01  -2.924113e-01  -1.732287e-01  -6.088978e-01  -7.741029e-01  -6.319596e-01  -1.061765e-01   3.210627e-01  -2.473988e-01  -7.140298e-01   6.549468e-01   3.757835e-01   5.523402e-01   7.441150e-01   8.930737e-01  -4.302113e-01  -1.316723e-01
   1.500000e-02   5.000000e-03   2.923058e-02   0.000000e+00   0.000000e+00   0.000000e+00   0.000000e+00   0.000000e+00   0.000000e+00   0.000000e+00   0.000000e+00   0.000000e+00   0.000000e+00   0.000000e+00   0.000000e+00   0.000000e+00   0.000000e+00   0.000000e+00   0.000000e+00   0.000000e+00   0.000000e+00   0.000000e+00   0.000000e+00   0.000000e+00   0.000000e+00   0.000000e+00   0.000000e+00   0.000000e+00   0.000000e+00   0.000000e+00   0.000000e+00   0.000000e+00   0.000000e+00   0.000000e+00   0.000000e+00   0.000000e+00   0.000000e+00   0.000000e+00   0.000000e+00   0.000000e+00   0.000000e+00   0.000000e+00   0.000000e+00   0.000000e+00   0.000000e+00   0.000000e+00   0.000000e+00   0.000000e+00   0.000000e+00   0.000000e+00   0.000000e+00   0.000000e+00   0.000000e+00   0.000000e+00   0.000000e+00   0.000000e+00   0.000000e+00   0.000000e+00   0.000000e+00   0.000000e+00   0.000000e+00   0.000000e+00   0.000000e+00   0.000000e+00   0.000000e+00   0.000000e+00   0.000000e+00   0.000000e+00   0.000000e+00   0.000000e+00   0.000000e+00   0.000000e+00   0.000000e+00   0.000000e+00   0.000000e+00   0.000000e+00   0.000000e+00   0.000000e+00   0.000000e+00   0.000000e+00   0.000000e+00   0.000000e+00   0.000000e+00   0.000000e+00   0.000000e+00   0.000000e+00   0.000000e+00   0.000000e+00   0.000000e+00   0.000000e+00   0.000000e+00   0.000000e+00   0.000000e+00   0.000000e+00   0.000000e+00   0.000000e+00   0.000000e+00   0.000000e+00   0.000000e+00   0.000000e+00   0.000000e+00   0.000000e+00   0.000000e+00   0.000000e+00   0.000000e+00   0.000000e+00   0.000000e+00   0.000000e+00   0.000000e+00   0.000000e+00   0.000000e+00   0.000000e+00   0.000000e+00   0.000000e+00   0.000000e+00   0.000000e+00   0.000000e+00   0.000000e+00   0.000000e+00   0.000000e+00   0.000000e+00   0.000000e+00   0.000000e+00   0.000000e+00   0.000000e+00   0.000000e+00   0.000000e+00   0.000000e+00   0.000000e+00   0.000000e+00   0.000000e+00   0.000000e+00   0.000000e+00   0.000000e+00   0.000000e+00   0.000000e+00   0.000000e+00   0.000000e+00   0.000000e+00   0.000000e+00   0.000000e+00   0.000000e+00   0.000000e+00   0.000000e+00   0.000000e+00   0.000000e+00
   1.500000e-02   1.500000e-02   9.743527e-03   1.501541e+03   7.648539e-01   3.198329e-01   3.063804e-01   3.737866e-01  -1.586239e-02  -2.410924e-03   1.967691e-02  -2.318703e+02  -2.207332e+02  -3.722309e+02  -1.724485e+01  -2.784173e+01  -1.717365e+01   2.160433e+06   1.017844e+06   2.594246e+06  -2.693155e+06  -5.230072e+06   7.984369e+05   2.160328e+06   5.375590e+05  -1.086579e+07  -5.924072e+06   1.018023e+06  -6.437863e+05   4.050187e+05   2.241458e+06   2.593107e+06   2.160633e+06   5.375822e+05  -1.086575e+07  -5.924050e+06   1.018313e+06  -6.437651e+05   4.050540e+05   2.241482e+06   2.593597e+06   1.930129e+02  -8.759222e+01   4.353874e-02  -9.405707e+02   6.462143e+02  -2.493069e-02  -1.689506e+02   1.533904e+02   3.581417e-02   5.802854e-01   5.335236e-01  -6.153222e-01  -7.883504e-01   5.575894e-01  -2.599958e-01   2.043832e-01   6.359612e-01   7.441645e-01   8.189711e+02   4.111400e+02   6.343148e-03  -5.289213e+02   5.223883e-02   3.210428e-02   4.752352e+05   2.243964e+05  -4.981001e-01  -3.253160e+05   1.290089e+01  -7.215336e+00   2.332104e+05   4.652612e+05  -4.817561e+03  -8.571688e+02  -7.012038e+03  -2.032806e+03   5.812644e+03   2.452434e+03  -4.228923e+03   8.458845e+03  -7.809055e-02  -4.331112e-01  -9.713341e-01  -1.146241e-01   3.189815e-01   1.210463e+00   4.528178e-01  -1.583726e-01  -1.556453e+00  -7.809055e-02   3.189815e-01  -1.556453e+00  -2.738676e-01  -2.592581e-01   5.260449e-01  -1.592435e-01  -7.120760e-01   6.844176e-01   4.937431e+02   1.309489e+07   1.309500e+07   1.309514e+07   1.182905e+03   1.182905e+03   2.317316e+00   1.835287e+00   1.414806e+00  -2.749448e+02   1.593571e+02  -3.799693e+02  -2.362996e+02  -2.085656e+02  -1.912548e-01  -1.314291e-01  -9.727014e-01  -7.837276e-01  -5.761691e-01   2.319489e-01   5.909253e-01  -8.066942e-01  -7.190480e-03  -4.870094e+06   2.807024e+06   7.835594e+06  -6.317257e-01  -7.323363e-01   2.541774e-01   3.467488e-01   2.630467e-02   9.375891e-01  -6.933166e-01   6.804348e-01   2.373194e-01  -1.714715e+00  -2.177791e-01   6.169311e-01   1.137125e-01  -2.344178e-01   9.654625e-01  -8.924857e-01  -4.510543e-01  -4.400375e-03   4.365075e-01  -8.611610e-01  -2.605050e-01
   1.500000e-02   1.500000e-02   2.923058e-02   0.000000e+00   0.000000e+00   0.000000e+00   0.000000e+00   0.000000e+00   0.000000e+00   0.000000e+00   0.000000e+00   0.000000e+00   0.000000e+00   0.000000e+00   0.000000e+00   0.000000e+00   0.000000e+00   0.000000e+00   0.000000e+00   0.000000e+00   0.000000e+00   0.000000e+00   0.000000e+00   0.000000e+00   0.000000e+00   0.000000e+00   0.000000e+00   0.000000e+00   0.000000e+00   0.000000e+00   0.000000e+00   0.000000e+00   0.000000e+00   0.000000e+00   0.000000e+00   0.000000e+00   0.000000e+00   0.000000e+00   0.000000e+00   0.000000e+00   0.000000e+00   0.000000e+00   0.000000e+00   0.000000e+00   0.000000e+00   0.000000e+00   0.000000e+00   0.000000e+00   0.000000e+00   0.000000e+00   0.000000e+00   0.000000e+00   0.000000e+00   0.000000e+00   0.000000e+00   0.000000e+00   0.000000e+00   0.000000e+00   0.000000e+00   0.000000e+00   0.000000e+00   0.000000e+00   0.000000e+00   0.000000e+00   0.000000e+00   0.000000e+00   0.000000e+00   0.000000e+00   0.000000e+00   0.000000e+00   0.000000e+00   0.000000e+00   0.000000e+00   0.000000e+00   0.000000e+00   0.000000e+00   0.000000e+00   0.000000e+00   0.000000e+00   0.000000e+00   0.000000e+00   0.000000e+00   0.000000e+00   0.000000e+00   0.000000e+00   0.000000e+00   0.000000e+00   0.000000e+00   0.000000e+00   0.000000e+00   0.000000e+00   0.000000e+00   0.000000e+00   0.000000e+00   0.000000e+00   0.000000e+00   0.000000e+00   0.000000e+00   0.000000e+00   0.000000e+00   0.000000e+00   0.000000e+00   0.000000e+00   0.000000e+00   0.000000e+00   0.000000e+00   0.000000e+00   0.000000e+00   0.000000e+00   0.000000e+00   0.000000e+00   0.000000e+00   0.000000e+00   0.000000e+00   0.000000e+00   0.000000e+00   0.000000e+00   0.000000e+00   0.000000e+00   0.000000e+00   0.000000e+00   0.000000e+00   0.000000e+00   0.000000e+00   0.000000e+00   0.000000e+00   0.000000e+00   0.000000e+00   0.000000e+00   0.000000e+00   0.000000e+00   0.000000e+00   0.000000e+00   0.000000e+00   0.000000e+00   0.000000e+00   0.000000e+00   0.000000e+00   0.000000e+00   0.000000e+00   0.000000e+00   0.000000e+00   0.000000e+00   0.000000e+00   0.000000e+00   0.000000e+00
