VARIABLES=
 x y z nomin_den nomin_voidr fabric_xx fabric_yy fabric_zz fabric_xy fabric_xz fabric_yz sigma_xx sigma_yy sigma_zz sigma_xy sigma_xz sigma_yz sigmaDot_xx sigmaDot_yy sigmaDot_zz sigmaDot_xy sigmaDot_xz sigmaDot_yz Oldro_xx Oldro_xy Oldro_xz Oldro_yx Oldro_yy Oldro_yz Oldro_zx Oldro_zy Oldro_zz Trues_xx Trues_xy Trues_xz Trues_yx Trues_yy Trues_yz Trues_zx Trues_zy Trues_zz F_xX F_xY F_xZ F_yX F_yY F_yZ F_zX F_zY F_zZ R_xX R_xY R_xZ R_yX R_yY R_yZ R_zX R_zY R_zZ U_xX U_yY U_zZ U_xY U_xZ U_yZ Green_xx Green_yy Green_zz Green_xy Green_xz Green_yz Green_vol Green_shr Euler_xx Euler_yy Euler_zz Euler_xy Euler_xz Euler_yz Euler_vol Euler_shr l_xx l_xy l_xz l_yx l_yy l_yz l_zx l_zy l_zz d_xx d_yy d_zz d_xy d_xz d_yz w_xy w_xz w_yz norm_sigma norm_sigmaDot norm_Oldro norm_Trues norm_F norm_U norm_l norm_d norm_w p q sigma_1 sigma_2 sigma_3 sigma_1_v1 sigma_1_v2 sigma_1_v3 sigma_2_v1 sigma_2_v2 sigma_2_v3 sigma_3_v1 sigma_3_v2 sigma_3_v3 sigmaDot_1 sigmaDot_2 sigmaDot_3 sigmaDot_1_v1 sigmaDot_1_v2 sigmaDot_1_v3 sigmaDot_2_v1 sigmaDot_2_v2 sigmaDot_2_v3 sigmaDot_3_v1 sigmaDot_3_v2 sigmaDot_3_v3 d_1 d_2 d_3 d_1_v1 d_1_v2 d_1_v3 d_2_v1 d_2_v2 d_2_v3 d_3_v1 d_3_v2 d_3_v3
ZONE T="stress" N=27, E=8, DATAPACKING=BLOCK, VARLOCATION=([4,5,6,7,8,9,10,11,12,13,14,15,16,17,18,19,20,21,22,23,24,25,26,27,28,29,30,31,32,33,34,35,36,37,38,39,40,41,42,43,44,45,46,47,48,49,50,51,52,53,54,55,56,57,58,59,60,61,62,63,64,65,66,67,68,69,70,71,72,73,74,75,76,77,78,79,80,81,82,83,84,85,86,87,88,89,90,91,92,93,94,95,96,97,98,99,100,101,102,103,104,105,106,107,108,109,110,111,112,113,114,115,116,117,118,119,120,121,122,123,124,125,126,127,128,129,130,131,132,133,134,135,136,137,138,139,140,141,142,143,144,145,146]=CELLCENTERED), ZONETYPE=FEBRICK, STRANDID=4, SOLUTIONTIME=6
   0.000000e+00   0.000000e+00   0.000000e+00   0.000000e+00   0.000000e+00   0.000000e+00   0.000000e+00   0.000000e+00   0.000000e+00   1.000000e-02   1.000000e-02   1.000000e-02   1.000000e-02   1.000000e-02   1.000000e-02   1.000000e-02   1.000000e-02   1.000000e-02   2.000000e-02   2.000000e-02   2.000000e-02   2.000000e-02   2.000000e-02   2.000000e-02   2.000000e-02   2.000000e-02   2.000000e-02
   0.000000e+00   0.000000e+00   0.000000e+00   1.000000e-02   1.000000e-02   1.000000e-02   2.000000e-02   2.000000e-02   2.000000e-02   0.000000e+00   0.000000e+00   0.000000e+00   1.000000e-02   1.000000e-02   1.000000e-02   2.000000e-02   2.000000e-02   2.000000e-02   0.000000e+00   0.000000e+00   0.000000e+00   1.000000e-02   1.000000e-02   1.000000e-02   2.000000e-02   2.000000e-02   2.000000e-02
   0.000000e+00   2.201466e-01   4.402931e-01   0.000000e+00   2.201466e-01   4.402931e-01   0.000000e+00   2.201466e-01   4.402931e-01   0.000000e+00   2.201466e-01   4.402931e-01   0.000000e+00   2.201466e-01   4.402931e-01   0.000000e+00   2.201466e-01   4.402931e-01   0.000000e+00   2.201466e-01   4.402931e-01   0.000000e+00   2.201466e-01   4.402931e-01   0.000000e+00   2.201466e-01   4.402931e-01
   1.610800e+02   3.720165e+01   1.049897e+02   1.344264e+01   9.633696e+01   9.066071e+00   9.553077e+01   7.482734e+00
   1.545145e+01   7.023339e+01   2.424058e+01   1.961339e+02   2.650761e+01   2.912986e+02   2.673975e+01   3.531486e+02
   3.355264e-01   0.000000e+00   2.555029e-01   0.000000e+00   2.817771e-01   0.000000e+00   3.146706e-01   0.000000e+00
   2.737716e-01   0.000000e+00   3.522610e-01   0.000000e+00   2.625755e-01   0.000000e+00   2.940273e-01   0.000000e+00
   3.907020e-01   0.000000e+00   3.922361e-01   0.000000e+00   4.419488e-01   0.000000e+00   3.913021e-01   0.000000e+00
   4.363232e-03   0.000000e+00  -1.582945e-02   0.000000e+00   2.083820e-02   0.000000e+00   1.122645e-02   0.000000e+00
  -4.797587e-03   0.000000e+00  -2.107054e-02   0.000000e+00  -4.342603e-02   0.000000e+00  -4.765310e-02   0.000000e+00
  -2.216282e-02   0.000000e+00  -3.384709e-02   0.000000e+00   2.817114e-02   0.000000e+00  -2.053337e-02   0.000000e+00
  -6.219483e+01   0.000000e+00  -1.039995e+02   0.000000e+00  -2.629517e+02   0.000000e+00  -6.323652e+01   0.000000e+00
  -6.297728e+01   0.000000e+00  -1.772255e+02   0.000000e+00  -1.082324e+02   0.000000e+00  -6.412097e+01   0.000000e+00
  -6.348966e+01   0.000000e+00  -1.353000e+02   0.000000e+00  -2.291076e+02   0.000000e+00  -6.723003e+01   0.000000e+00
   3.922624e+00   0.000000e+00   3.601874e+01   0.000000e+00  -7.136772e+01   0.000000e+00  -7.833161e+00   0.000000e+00
   7.499863e-01   0.000000e+00   1.050420e+01   0.000000e+00   1.188120e+02   0.000000e+00   1.996425e+01   0.000000e+00
   5.971328e+00   0.000000e+00   1.767762e+01   0.000000e+00   5.666816e+01   0.000000e+00   2.526426e+01   0.000000e+00
   1.529522e+06   0.000000e+00   1.961680e+06   0.000000e+00   8.888796e+06   0.000000e+00   1.188290e+06   0.000000e+00
   3.660169e+06   0.000000e+00   2.004212e+06   0.000000e+00  -9.060443e+06   0.000000e+00   1.145788e+06   0.000000e+00
  -2.868224e+06   0.000000e+00   3.417150e+06   0.000000e+00   4.941706e+06   0.000000e+00  -2.494623e+05   0.000000e+00
  -5.531198e+06   0.000000e+00  -3.326925e+06   0.000000e+00   3.283338e+06   0.000000e+00  -3.515862e+06   0.000000e+00
   3.238436e+06   0.000000e+00   5.312711e+06   0.000000e+00   4.400834e+06   0.000000e+00   3.117108e+06   0.000000e+00
   9.739371e+06   0.000000e+00  -8.728089e+05   0.000000e+00  -1.402809e+06   0.000000e+00  -5.234866e+06   0.000000e+00
   1.529948e+06   0.000000e+00   1.962566e+06   0.000000e+00   8.889456e+06   0.000000e+00   1.186921e+06   0.000000e+00
   7.521361e+05   0.000000e+00  -7.469156e+05   0.000000e+00  -1.297453e+07   0.000000e+00   1.031037e+06   0.000000e+00
   8.192760e+06   0.000000e+00   6.747829e+06   0.000000e+00   1.327225e+07   0.000000e+00   6.787948e+06   0.000000e+00
  -1.181519e+07   0.000000e+00  -5.911374e+06   0.000000e+00   1.954293e+07   0.000000e+00  -8.063370e+06   0.000000e+00
   3.662656e+06   0.000000e+00   2.004500e+06   0.000000e+00  -9.059952e+06   0.000000e+00   1.146061e+06   0.000000e+00
  -8.251976e+05   0.000000e+00  -3.632838e+06   0.000000e+00  -1.783558e+07   0.000000e+00  -4.094787e+05   0.000000e+00
  -1.716522e+06   0.000000e+00   3.877661e+06   0.000000e+00  -4.466558e+06   0.000000e+00  -5.537231e+05   0.000000e+00
   2.030372e+07   0.000000e+00   1.887811e+06   0.000000e+00   1.503125e+07   0.000000e+00  -1.005972e+07   0.000000e+00
  -2.869946e+06   0.000000e+00   3.413841e+06   0.000000e+00   4.935319e+06   0.000000e+00  -2.508920e+05   0.000000e+00
   1.529379e+06   0.000000e+00   1.963782e+06   0.000000e+00   8.892298e+06   0.000000e+00   1.188256e+06   0.000000e+00
   7.521826e+05   0.000000e+00  -7.473170e+05   0.000000e+00  -1.297370e+07   0.000000e+00   1.031231e+06   0.000000e+00
   8.192741e+06   0.000000e+00   6.747667e+06   0.000000e+00   1.327095e+07   0.000000e+00   6.787495e+06   0.000000e+00
  -1.181516e+07   0.000000e+00  -5.911815e+06   0.000000e+00   1.954364e+07   0.000000e+00  -8.063233e+06   0.000000e+00
   3.662079e+06   0.000000e+00   2.006572e+06   0.000000e+00  -9.058782e+06   0.000000e+00   1.147415e+06   0.000000e+00
  -8.251902e+05   0.000000e+00  -3.633079e+06   0.000000e+00  -1.783605e+07   0.000000e+00  -4.099377e+05   0.000000e+00
  -1.716489e+06   0.000000e+00   3.877577e+06   0.000000e+00  -4.467828e+06   0.000000e+00  -5.541131e+05   0.000000e+00
   2.030382e+07   0.000000e+00   1.887639e+06   0.000000e+00   1.503049e+07   0.000000e+00  -1.006032e+07   0.000000e+00
  -2.870528e+06   0.000000e+00   3.415423e+06   0.000000e+00   4.937795e+06   0.000000e+00  -2.494725e+05   0.000000e+00
  -9.498048e+01   1.000000e+00  -1.319830e+02   0.000000e+00   5.264464e+02   0.000000e+00  -1.692249e+03   0.000000e+00
   4.639696e+01   1.038371e-17   8.598171e+01   0.000000e+00  -5.675794e+02   0.000000e+00   5.117312e+01   0.000000e+00
   9.121005e-03  -4.436559e-18   2.024468e-02   0.000000e+00  -3.945405e-02   0.000000e+00  -1.804457e-02   0.000000e+00
   4.437532e+01  -2.336575e-17   1.791094e+03   0.000000e+00  -6.337908e+02   0.000000e+00  -1.234597e+03   0.000000e+00
   6.045999e+01   1.000000e+00  -1.896100e+02   0.000000e+00   1.059190e+02   0.000000e+00   2.453317e+02   0.000000e+00
  -4.903412e-05  -3.348119e-18  -5.582754e-02   0.000000e+00   8.512345e-03   0.000000e+00  -2.821886e-02   0.000000e+00
  -4.903458e+02   1.287093e-01   3.663019e+04   0.000000e+00   1.416613e+04   0.000000e+00   1.015301e+04   0.000000e+00
  -1.085663e+03   3.120856e-01  -3.935983e+04   0.000000e+00  -7.568668e+03   0.000000e+00  -2.012801e+03   0.000000e+00
   1.328759e+00   2.912121e+00   4.616197e-01   0.000000e+00   7.381226e-01   0.000000e+00   8.669035e-01   0.000000e+00
  -9.002912e-01   9.994618e-01  -2.539095e-02   0.000000e+00  -3.254536e-01   0.000000e+00  -3.433200e-01   0.000000e+00
   4.102928e-01  -1.305004e-03  -1.975993e-02   0.000000e+00  -7.053515e-01   0.000000e+00  -9.392154e-01   0.000000e+00
   1.453806e-01  -3.277832e-02   9.994823e-01   0.000000e+00  -6.297295e-01   0.000000e+00   2.426711e-03   0.000000e+00
   1.581468e-01  -1.305004e-03   7.482759e-01   0.000000e+00  -3.310112e-01   0.000000e+00  -1.129949e-01   0.000000e+00
  -2.857255e-03   9.968357e-01   6.626101e-01   0.000000e+00  -5.388572e-01   0.000000e+00   4.386877e-02   0.000000e+00
   9.874115e-01  -7.947866e-02   3.210919e-02   0.000000e+00   7.746383e-01   0.000000e+00   9.926267e-01   0.000000e+00
  -4.055432e-01   3.277832e-02   6.629015e-01   0.000000e+00   8.857266e-01   0.000000e+00   9.323967e-01   0.000000e+00
  -9.119494e-01   7.947866e-02  -7.487038e-01   0.000000e+00  -4.605563e-01   0.000000e+00  -3.405144e-01   0.000000e+00
   6.231413e-02   9.962975e-01   2.038423e-03   0.000000e+00   5.810627e-02   0.000000e+00   1.211876e-01   0.000000e+00
   2.913843e+02   1.003681e+00   2.562579e+04   0.000000e+00   1.258578e+04   0.000000e+00   1.018712e+04   0.000000e+00
   1.008933e+03   1.021640e+00   2.934152e+04   0.000000e+00   3.829066e+03   0.000000e+00   6.480874e+02   0.000000e+00
   8.407804e-02   2.901339e+00   1.938260e-02   0.000000e+00   7.432891e-02   0.000000e+00   7.700334e-02   0.000000e+00
   4.080739e+02   8.924636e-03  -2.623576e+04   0.000000e+00  -6.554110e+03   0.000000e+00  -1.922019e+03   0.000000e+00
  -5.470884e-01   9.545441e-02   2.637200e-01   0.000000e+00   6.637975e-01   0.000000e+00   8.176816e-01   0.000000e+00
  -1.208018e+00   2.314514e-01  -3.830084e-01   0.000000e+00  -3.167050e-01   0.000000e+00  -2.794833e-01   0.000000e+00
   1.257142e+05   8.283038e-03   6.724980e+08  -5.000000e-01   1.006791e+08  -5.000000e-01   5.373574e+07  -5.000000e-01
   5.922353e+05   4.869871e-02   7.746198e+08  -5.000000e-01   2.880905e+07  -5.000000e-01   2.057086e+06  -5.000000e-01
   3.828414e-01   3.740223e+00  -3.916903e-01  -5.000000e-01  -2.267730e-01  -5.000000e-01  -1.236782e-01  -5.000000e-01
   2.653131e+05   2.008415e-02  -7.210544e+08   0.000000e+00  -5.379235e+07   0.000000e+00  -1.041273e+07   0.000000e+00
  -3.262099e+02   1.874085e-01   8.403275e+03   0.000000e+00   5.215089e+03   0.000000e+00   4.433526e+03   0.000000e+00
  -7.210818e+02   4.544155e-01  -9.078473e+03   0.000000e+00  -2.781655e+03   0.000000e+00  -8.763752e+02   0.000000e+00
   2.393166e+05   1.265735e+00   4.823726e+08  -5.000000e-01   4.316272e+07  -5.000000e-01   1.859761e+07  -5.000000e-01
   4.729431e+05   2.538962e+00   9.640465e+08   0.000000e+00   8.627250e+07   0.000000e+00   3.715731e+07   0.000000e+00
  -1.048720e+00  -9.767219e-04  -1.330098e+03   0.000000e+00  -3.541597e+01   0.000000e+00   4.996505e-01   0.000000e+00
  -7.095302e+01  -5.742470e-03  -8.781848e-01   0.000000e+00  -5.387012e+01   0.000000e+00  -8.284906e+01   0.000000e+00
   2.255021e-01   4.410408e-01   4.945196e-01   0.000000e+00   1.946247e-01   0.000000e+00  -7.392923e-01   0.000000e+00
  -1.051939e+01  -2.368290e-03  -4.282300e+01   0.000000e+00   4.418999e+01   0.000000e+00  -1.690891e-01   0.000000e+00
  -6.520028e-01   7.588590e-03  -2.700403e+00   0.000000e+00   3.311774e+00   0.000000e+00  -2.061931e-02   0.000000e+00
  -4.428734e+00   1.840030e-02  -8.690781e-02   0.000000e+00  -4.074714e+00   0.000000e+00  -1.016336e+01   0.000000e+00
  -2.392541e+01   1.447739e-01  -4.434938e+02   0.000000e+00  -2.969716e+01   0.000000e+00  -2.769623e+01   0.000000e+00
   4.885078e+01   2.971824e-01   8.879876e+02   0.000000e+00   6.039431e+01   0.000000e+00   5.639246e+01   0.000000e+00
   3.008584e+00   0.000000e+00   1.289335e+00   0.000000e+00  -3.785681e-02   0.000000e+00  -1.076077e+01   0.000000e+00
  -6.674559e+00   0.000000e+00  -8.543195e+00   0.000000e+00   5.247049e+00   0.000000e+00  -2.536374e-01   0.000000e+00
  -7.231981e-03   0.000000e+00  -1.133908e-01   0.000000e+00   2.905389e-01   0.000000e+00   9.693474e-02   0.000000e+00
   2.951013e+00   0.000000e+00  -6.524086e+00   0.000000e+00   6.961089e-01   0.000000e+00  -3.555512e+00   0.000000e+00
   1.993376e+01   0.000000e+00  -5.007951e-01   0.000000e+00   1.816065e+00   0.000000e+00   2.495594e+00   0.000000e+00
   6.504872e-02   0.000000e+00   1.283286e-01   0.000000e+00   1.676694e-02   0.000000e+00  -1.818152e-01   0.000000e+00
  -5.951350e+00   3.692098e-01  -2.309897e+00   0.000000e+00   3.093376e+00   0.000000e+00  -7.610106e+00   0.000000e+00
  -1.597653e+00   8.670445e-01  -5.824651e-01   0.000000e+00  -1.013001e+00   0.000000e+00   1.173831e-01   0.000000e+00
  -1.378430e+01   4.272641e+00  -1.248208e+01   0.000000e+00  -1.258493e+01   0.000000e+00  -1.284843e+01   0.000000e+00
   3.008584e+00   0.000000e+00   1.289335e+00   0.000000e+00  -3.785681e-02   0.000000e+00  -1.076077e+01   0.000000e+00
   1.993376e+01   0.000000e+00  -5.007951e-01   0.000000e+00   1.816065e+00   0.000000e+00   2.495594e+00   0.000000e+00
  -1.378430e+01   4.272641e+00  -1.248208e+01   0.000000e+00  -1.258493e+01   0.000000e+00  -1.284843e+01   0.000000e+00
  -1.861773e+00   0.000000e+00  -7.533640e+00   0.000000e+00   2.971579e+00   0.000000e+00  -1.904575e+00   0.000000e+00
  -2.979291e+00   1.846049e-01  -1.211644e+00   0.000000e+00   1.691958e+00   0.000000e+00  -3.756586e+00   0.000000e+00
  -7.663020e-01   4.335223e-01  -2.270682e-01   0.000000e+00  -4.981172e-01   0.000000e+00  -3.221608e-02   0.000000e+00
  -4.812786e+00   0.000000e+00  -1.009554e+00   0.000000e+00   2.275470e+00   0.000000e+00   1.650937e+00   0.000000e+00
   2.972059e+00  -1.846049e-01   1.098253e+00   0.000000e+00  -1.401419e+00   0.000000e+00   3.853521e+00   0.000000e+00
   8.313507e-01  -4.335223e-01   3.553968e-01   0.000000e+00   5.148841e-01   0.000000e+00  -1.495992e-01   0.000000e+00
   1.097297e+02   0.000000e+00   2.530143e+02   0.000000e+00   4.226466e+02   0.000000e+00   1.218999e+02   0.000000e+00
   2.543858e+07   0.000000e+00   1.150418e+07   0.000000e+00   3.841718e+07   0.000000e+00   1.471794e+07   0.000000e+00
   2.543907e+07   0.000000e+00   1.150465e+07   0.000000e+00   3.841713e+07   0.000000e+00   1.471783e+07   0.000000e+00
   2.543908e+07   0.000000e+00   1.150587e+07   0.000000e+00   3.841753e+07   0.000000e+00   1.471819e+07   0.000000e+00
   1.198292e+03   3.254906e+00   5.379810e+04   0.000000e+00   1.609274e+04   0.000000e+00   1.056341e+04   0.000000e+00
   1.198292e+03   3.254906e+00   5.379810e+04   0.000000e+00   1.609274e+04   0.000000e+00   1.056341e+04   0.000000e+00
   2.622302e+01   4.375333e+00   1.670239e+01   0.000000e+00   1.415542e+01   0.000000e+00   1.891508e+01   0.000000e+00
   2.494539e+01   4.324292e+00   1.656099e+01   0.000000e+00   1.362213e+01   0.000000e+00   1.796065e+01   0.000000e+00
   8.085442e+00   6.663640e-01   2.168717e+00   0.000000e+00   3.848855e+00   0.000000e+00   5.932553e+00   0.000000e+00
  -6.288726e+01   0.000000e+00  -1.388417e+02   0.000000e+00  -2.000972e+02   0.000000e+00  -6.486251e+01   0.000000e+00
   2.086114e+01   0.000000e+00   9.552560e+01   0.000000e+00   2.984390e+02   0.000000e+00   6.040529e+01   0.000000e+00
  -7.441174e+01   0.000000e+00  -1.951735e+02   0.000000e+00  -3.965701e+02   0.000000e+00  -1.027807e+02   0.000000e+00
  -6.386683e+01   0.000000e+00  -1.364004e+02   0.000000e+00  -1.290167e+02   0.000000e+00  -5.764747e+01   0.000000e+00
  -5.038320e+01   0.000000e+00  -8.495110e+01   0.000000e+00  -7.470500e+01   0.000000e+00  -3.415933e+01   0.000000e+00
   5.500892e-02   0.000000e+00  -3.636619e-01   0.000000e+00   7.094264e-01   0.000000e+00  -4.197414e-01   0.000000e+00
   6.899235e-01   0.000000e+00   9.136389e-01   0.000000e+00   3.153725e-01   0.000000e+00  -5.863326e-01   0.000000e+00
  -7.217891e-01   0.000000e+00  -1.816973e-01   0.000000e+00  -6.302812e-01   0.000000e+00   6.928429e-01   0.000000e+00
  -9.330624e-01   0.000000e+00   2.948049e-01   0.000000e+00   6.953004e-01   0.000000e+00  -8.504280e-01   0.000000e+00
   2.928819e-01   0.000000e+00  -7.214808e-02   0.000000e+00  -1.670024e-01   0.000000e+00   5.207927e-01   0.000000e+00
   2.088413e-01   0.000000e+00  -9.528298e-01   0.000000e+00   6.990476e-01   0.000000e+00  -7.447881e-02   0.000000e+00
   3.554835e-01   0.000000e+00   8.836516e-01   0.000000e+00  -1.152019e-01   0.000000e+00   3.171582e-01   0.000000e+00
   6.619862e-01   0.000000e+00   4.000732e-01   0.000000e+00   9.341576e-01   0.000000e+00   6.204749e-01   0.000000e+00
   6.598528e-01   0.000000e+00   2.431078e-01   0.000000e+00   3.377545e-01   0.000000e+00   7.172319e-01   0.000000e+00
  -2.207190e+07   0.000000e+00  -5.766824e+06   0.000000e+00  -2.846234e+07   0.000000e+00  -1.246470e+07   0.000000e+00
  -1.010200e+06   0.000000e+00   4.722738e+06   0.000000e+00   1.034044e+07   0.000000e+00   1.166302e+06   0.000000e+00
   2.540357e+07   0.000000e+00   8.427128e+06   0.000000e+00   2.289196e+07   0.000000e+00   1.338301e+07   0.000000e+00
  -2.862004e-01   0.000000e+00   6.748447e-01   0.000000e+00  -4.602915e-01   0.000000e+00  -4.296890e-01   0.000000e+00
  -6.710642e-01   0.000000e+00   6.129687e-01   0.000000e+00   7.849254e-01   0.000000e+00  -6.873696e-01   0.000000e+00
   6.839314e-01   0.000000e+00  -4.109185e-01   0.000000e+00  -4.147576e-01   0.000000e+00  -5.855684e-01   0.000000e+00
  -8.698415e-01   0.000000e+00  -1.876412e-02   0.000000e+00   4.987987e-01   0.000000e+00  -7.794618e-01   0.000000e+00
  -1.173757e-01   0.000000e+00  -5.423974e-01   0.000000e+00  -1.578182e-01   0.000000e+00  -4.503264e-02   0.000000e+00
  -4.791645e-01   0.000000e+00  -8.399125e-01   0.000000e+00  -8.522284e-01   0.000000e+00   6.248291e-01   0.000000e+00
   4.018271e-01   0.000000e+00  -7.377212e-01   0.000000e+00  -7.343920e-01   0.000000e+00   4.558582e-01   0.000000e+00
  -7.320490e-01   0.000000e+00   5.745210e-01   0.000000e+00  -5.991540e-01   0.000000e+00  -7.249104e-01   0.000000e+00
  -5.501266e-01   0.000000e+00  -3.545322e-01   0.000000e+00  -3.188774e-01   0.000000e+00   5.164283e-01   0.000000e+00
  -1.433084e+01  -5.134625e-02  -1.268261e+01   0.000000e+00  -1.286474e+01   0.000000e+00  -1.578065e+01   0.000000e+00
   3.346955e+00  -5.597307e-17  -7.019736e+00   0.000000e+00  -1.966257e+00   0.000000e+00  -8.113299e+00   0.000000e+00
   2.014193e+01   4.323987e+00   8.008805e+00   0.000000e+00   4.024268e+00   0.000000e+00   2.780351e+00   0.000000e+00
   1.725298e-01   3.894783e-01   1.428562e-01   0.000000e+00   1.448059e-01   0.000000e+00   6.136412e-01   0.000000e+00
   3.139212e-02   9.146427e-01   1.066883e-01   0.000000e+00  -6.281503e-02   0.000000e+00   6.533484e-02   0.000000e+00
   9.845039e-01  -1.083300e-01   9.839765e-01   0.000000e+00  -9.874642e-01   0.000000e+00   7.868773e-01   0.000000e+00
   9.793107e-01  -9.200572e-01  -6.473146e-01   0.000000e+00  -7.867495e-01   0.000000e+00   7.755253e-01   0.000000e+00
   1.018432e-01   3.917840e-01  -7.419959e-01   0.000000e+00   5.979061e-01   0.000000e+00   1.373559e-01   0.000000e+00
  -1.748671e-01  -4.447839e-17   1.744302e-01   0.000000e+00  -1.534065e-01   0.000000e+00  -6.161931e-01   0.000000e+00
   1.057545e-01   4.244196e-02   7.487162e-01   0.000000e+00   6.000471e-01   0.000000e+00   1.483411e-01   0.000000e+00
  -9.943050e-01   9.966981e-02  -6.618608e-01   0.000000e+00   7.991011e-01   0.000000e+00  -9.883647e-01   0.000000e+00
   1.317166e-02   9.941150e-01  -3.693786e-02   0.000000e+00   3.716063e-02   0.000000e+00  -3.361843e-02   0.000000e+00
      10      13       4       1      11      14       5       2
      11      14       5       2      12      15       6       3
      13      16       7       4      14      17       8       5
      14      17       8       5      15      18       9       6
      19      22      13      10      20      23      14      11
      20      23      14      11      21      24      15      12
      22      25      16      13      23      26      17      14
      23      26      17      14      24      27      18      15
