     VARIABLES=
              x              y              z      nomin_den    nomin_voidr      fabric_xx      fabric_yy      fabric_zz      fabric_xy      fabric_xz      fabric_yz       sigma_xx       sigma_yy       sigma_zz       sigma_xy       sigma_xz       sigma_yz    sigmaDot_xx    sigmaDot_yy    sigmaDot_zz    sigmaDot_xy    sigmaDot_xz    sigmaDot_yz       Oldro_xx       Oldro_xy       Oldro_xz       Oldro_yx       Oldro_yy       Oldro_yz       Oldro_zx       Oldro_zy       Oldro_zz       Trues_xx       Trues_xy       Trues_xz       Trues_yx       Trues_yy       Trues_yz       Trues_zx       Trues_zy       Trues_zz           F_xX           F_xY           F_xZ           F_yX           F_yY           F_yZ           F_zX           F_zY           F_zZ           R_xX           R_xY           R_xZ           R_yX           R_yY           R_yZ           R_zX           R_zY           R_zZ           U_xX           U_yY           U_zZ           U_xY           U_xZ           U_yZ       Green_xx       Green_yy       Green_zz       Green_xy       Green_xz       Green_yz      Green_vol      Green_shr       Euler_xx       Euler_yy       Euler_zz       Euler_xy       Euler_xz       Euler_yz      Euler_vol      Euler_shr           l_xx           l_xy           l_xz           l_yx           l_yy           l_yz           l_zx           l_zy           l_zz           d_xx           d_yy           d_zz           d_xy           d_xz           d_yz           w_xy           w_xz           w_yz     norm_sigma  norm_sigmaDot     norm_Oldro     norm_Trues         norm_F         norm_U         norm_l         norm_d         norm_w              p              q        sigma_1        sigma_2        sigma_3     sigma_1_v1     sigma_1_v2     sigma_1_v3     sigma_2_v1     sigma_2_v2     sigma_2_v3     sigma_3_v1     sigma_3_v2     sigma_3_v3     sigmaDot_1     sigmaDot_2     sigmaDot_3  sigmaDot_1_v1  sigmaDot_1_v2  sigmaDot_1_v3  sigmaDot_2_v1  sigmaDot_2_v2  sigmaDot_2_v3  sigmaDot_3_v1  sigmaDot_3_v2  sigmaDot_3_v3            d_1            d_2            d_3         d_1_v1         d_1_v2         d_1_v3         d_2_v1         d_2_v2         d_2_v3         d_3_v1         d_3_v2         d_3_v3
ZONE I=2, J=2, K=2, DATAPACKING=POINT, STRANDID=5, SOLUTIONTIME=11
   5.000000e-03   5.000000e-03   3.521265e-02   4.170594e+02   5.354011e+00   3.397163e-01   3.023348e-01   3.579488e-01   4.626933e-03  -1.585311e-02  -4.530937e-04  -1.873851e+02  -1.074802e+02  -2.077002e+02  -2.073500e+01  -2.683638e+01  -2.579600e+01  -5.729964e+06  -2.704642e+06   4.861158e+06  -1.657279e+07  -4.619073e+07   2.237090e+07  -5.730790e+06   1.481993e+07  -8.976050e+07  -4.796705e+07  -2.704741e+06  -3.157646e+06  -2.656227e+06   4.787935e+07   4.830974e+06  -5.720221e+06   1.482037e+07  -8.975880e+07  -4.796514e+07  -2.698679e+06  -3.156207e+06  -2.654895e+06   4.788082e+07   4.842689e+06   1.820430e+01  -6.947196e+02   1.187450e-01  -2.235296e+02  -1.064015e+03   3.071747e-01   1.230810e+03   9.253382e+02   7.612391e-01   2.749756e-01  -5.648934e-01  -7.779999e-01   1.563294e-01  -7.721558e-01   6.159030e-01   9.486567e-01   2.909826e-01   1.240146e-01   1.137678e+03   1.483285e+03   1.912110e-01   5.204605e+02   8.028270e-01  -8.275767e-02   7.825945e+05   1.235507e+06  -1.560292e-01   6.820537e+05   4.352198e+02   1.475353e+02   6.727003e+05   1.068254e+06  -7.850606e+00  -4.720381e+00   2.905197e-01   6.602525e+00   1.322605e+00  -1.045737e+00  -4.093489e+00   9.186977e+00  -1.646104e+00  -5.289415e+00   1.993368e-01  -8.735732e-01  -2.883216e-01  -2.713283e-02  -7.836873e+01  -6.496241e+01  -5.446852e+01  -1.646104e+00  -2.883216e-01  -5.446852e+01  -3.081494e+00  -3.908470e+01  -3.249477e+01  -2.207921e+00   3.928403e+01   3.246764e+01   3.062637e+02   1.137904e+08   1.137997e+08   1.137980e+08   2.009031e+03   2.009031e+03   1.155862e+02   9.030864e+01   7.214233e+01  -1.675218e+02   1.247396e+02  -2.362117e+02  -1.737716e+02  -9.258222e+01  -5.774549e-01  -3.049711e-01  -7.573232e-01  -7.601136e-01  -1.376977e-01   6.350328e-01   2.979483e-01  -9.423545e-01   1.522985e-01  -6.828650e+07  -3.061537e+06   6.777459e+07  -5.311672e-01  -7.175170e-01   4.505893e-01  -7.040897e-01   7.798609e-02  -7.058158e-01   4.712951e-01  -6.921615e-01  -5.466200e-01  -8.601549e+01   2.186157e+00   2.742639e+01  -4.059031e-01  -3.366500e-01  -8.496525e-01  -6.413516e-01   7.672434e-01   2.394049e-03  -6.510843e-01  -5.458978e-01   5.273375e-01
   5.000000e-03   5.000000e-03   1.056380e-01   0.000000e+00   0.000000e+00   0.000000e+00   0.000000e+00   0.000000e+00   0.000000e+00   0.000000e+00   0.000000e+00   0.000000e+00   0.000000e+00   0.000000e+00   0.000000e+00   0.000000e+00   0.000000e+00   0.000000e+00   0.000000e+00   0.000000e+00   0.000000e+00   0.000000e+00   0.000000e+00   0.000000e+00   0.000000e+00   0.000000e+00   0.000000e+00   0.000000e+00   0.000000e+00   0.000000e+00   0.000000e+00   0.000000e+00   0.000000e+00   0.000000e+00   0.000000e+00   0.000000e+00   0.000000e+00   0.000000e+00   0.000000e+00   0.000000e+00   0.000000e+00   0.000000e+00   0.000000e+00   0.000000e+00   0.000000e+00   0.000000e+00   0.000000e+00   0.000000e+00   0.000000e+00   0.000000e+00   0.000000e+00   0.000000e+00   0.000000e+00   0.000000e+00   0.000000e+00   0.000000e+00   0.000000e+00   0.000000e+00   0.000000e+00   0.000000e+00   0.000000e+00   0.000000e+00   0.000000e+00   0.000000e+00   0.000000e+00   0.000000e+00   0.000000e+00   0.000000e+00   0.000000e+00   0.000000e+00   0.000000e+00   0.000000e+00   0.000000e+00   0.000000e+00   0.000000e+00   0.000000e+00   0.000000e+00   0.000000e+00   0.000000e+00   0.000000e+00   0.000000e+00   0.000000e+00   0.000000e+00   0.000000e+00   0.000000e+00   0.000000e+00   0.000000e+00   0.000000e+00   0.000000e+00   0.000000e+00   0.000000e+00   0.000000e+00   0.000000e+00   0.000000e+00   0.000000e+00   0.000000e+00   0.000000e+00   0.000000e+00   0.000000e+00   0.000000e+00   0.000000e+00   0.000000e+00   0.000000e+00   0.000000e+00   0.000000e+00   0.000000e+00   0.000000e+00   0.000000e+00   0.000000e+00   0.000000e+00   0.000000e+00   0.000000e+00   0.000000e+00   0.000000e+00   0.000000e+00   0.000000e+00   0.000000e+00   0.000000e+00   0.000000e+00   0.000000e+00   0.000000e+00   0.000000e+00   0.000000e+00   0.000000e+00   0.000000e+00   0.000000e+00   0.000000e+00   0.000000e+00   0.000000e+00   0.000000e+00   0.000000e+00   0.000000e+00   0.000000e+00   0.000000e+00   0.000000e+00   0.000000e+00   0.000000e+00   0.000000e+00   0.000000e+00   0.000000e+00   0.000000e+00   0.000000e+00   0.000000e+00   0.000000e+00   0.000000e+00   0.000000e+00
   5.000000e-03   1.500000e-02   3.521265e-02   3.929756e+02   5.743421e+00   3.306718e-01   2.932116e-01   3.761166e-01   3.310514e-02   1.586490e-02  -4.499646e-03  -1.434547e+02  -1.130070e+02  -1.014866e+02  -6.567162e+01   5.282716e+01   3.820036e+01  -2.978552e+06  -8.715534e+05  -6.125233e+06   1.985720e+06   8.911340e+06   1.114789e+06  -2.977169e+06  -3.867576e+05   1.578225e+07   4.359696e+06  -8.717506e+05   5.156497e+05   2.053675e+06   1.732795e+06  -6.137163e+06  -2.973111e+06  -3.854994e+05   1.578130e+07   4.362154e+06  -8.685539e+05   5.145125e+05   2.051630e+06   1.731771e+06  -6.134292e+06   1.770094e+01   1.682037e+02  -3.317298e-01   1.615090e+03  -9.812634e+02  -3.380513e-01   7.927160e+03  -9.253115e+03   5.117323e-01   1.502594e-01   1.428914e-01  -9.782659e-01   8.266682e-01   5.245651e-01   2.035954e-01   5.422562e-01  -8.392935e-01  -3.930292e-02   5.636355e+03   7.275377e+03   2.355817e-01  -5.803464e+03  -5.181177e-02  -6.542248e-01   3.272435e+07   4.330566e+07  -2.569033e-01  -3.746639e+07   1.752364e+03  -2.229600e+03   2.534333e+07   5.050986e+07  -8.147268e+00   1.225404e-01   4.859322e-01   1.806649e+00  -3.487800e-01   7.286984e-02  -2.512932e+00   6.025862e+00   2.671765e+00   5.435719e+00   9.254912e-01   4.656018e-01  -1.182786e+00  -1.179724e-01   4.628093e+00   7.064608e+01  -2.977700e+01   2.671765e+00  -1.182786e+00  -2.977700e+01   2.950660e+00   2.776792e+00   3.526405e+01   2.485058e+00  -1.851301e+00  -3.538203e+01   2.498780e+02   1.796228e+07   1.797248e+07   1.797005e+07   1.233126e+04   1.233126e+04   7.705926e+01   5.843927e+01   5.022929e+01  -1.193161e+02   2.089450e+02  -2.566890e+02  -7.060927e+01  -3.065000e+01  -7.064105e-01  -5.418258e-01   4.554219e-01   1.384514e-02   6.327300e-01   7.742487e-01  -7.076670e-01   5.532428e-01  -4.394655e-01  -7.198909e+06  -6.066723e+06   3.290293e+06  -5.673753e-01   1.714772e-01   8.054072e-01  -5.559640e-01   6.417330e-01  -5.282829e-01   6.074448e-01   7.475121e-01   2.687683e-01  -5.353962e+01   1.905837e+00   2.334577e+01   1.168622e-02   5.581454e-01  -8.296609e-01  -9.817260e-01   1.640123e-01   9.650938e-02  -1.899409e-01  -8.133718e-01  -5.498625e-01
   5.000000e-03   1.500000e-02   1.056380e-01   0.000000e+00   0.000000e+00   0.000000e+00   0.000000e+00   0.000000e+00   0.000000e+00   0.000000e+00   0.000000e+00   0.000000e+00   0.000000e+00   0.000000e+00   0.000000e+00   0.000000e+00   0.000000e+00   0.000000e+00   0.000000e+00   0.000000e+00   0.000000e+00   0.000000e+00   0.000000e+00   0.000000e+00   0.000000e+00   0.000000e+00   0.000000e+00   0.000000e+00   0.000000e+00   0.000000e+00   0.000000e+00   0.000000e+00   0.000000e+00   0.000000e+00   0.000000e+00   0.000000e+00   0.000000e+00   0.000000e+00   0.000000e+00   0.000000e+00   0.000000e+00   0.000000e+00   0.000000e+00   0.000000e+00   0.000000e+00   0.000000e+00   0.000000e+00   0.000000e+00   0.000000e+00   0.000000e+00   0.000000e+00   0.000000e+00   0.000000e+00   0.000000e+00   0.000000e+00   0.000000e+00   0.000000e+00   0.000000e+00   0.000000e+00   0.000000e+00   0.000000e+00   0.000000e+00   0.000000e+00   0.000000e+00   0.000000e+00   0.000000e+00   0.000000e+00   0.000000e+00   0.000000e+00   0.000000e+00   0.000000e+00   0.000000e+00   0.000000e+00   0.000000e+00   0.000000e+00   0.000000e+00   0.000000e+00   0.000000e+00   0.000000e+00   0.000000e+00   0.000000e+00   0.000000e+00   0.000000e+00   0.000000e+00   0.000000e+00   0.000000e+00   0.000000e+00   0.000000e+00   0.000000e+00   0.000000e+00   0.000000e+00   0.000000e+00   0.000000e+00   0.000000e+00   0.000000e+00   0.000000e+00   0.000000e+00   0.000000e+00   0.000000e+00   0.000000e+00   0.000000e+00   0.000000e+00   0.000000e+00   0.000000e+00   0.000000e+00   0.000000e+00   0.000000e+00   0.000000e+00   0.000000e+00   0.000000e+00   0.000000e+00   0.000000e+00   0.000000e+00   0.000000e+00   0.000000e+00   0.000000e+00   0.000000e+00   0.000000e+00   0.000000e+00   0.000000e+00   0.000000e+00   0.000000e+00   0.000000e+00   0.000000e+00   0.000000e+00   0.000000e+00   0.000000e+00   0.000000e+00   0.000000e+00   0.000000e+00   0.000000e+00   0.000000e+00   0.000000e+00   0.000000e+00   0.000000e+00   0.000000e+00   0.000000e+00   0.000000e+00   0.000000e+00   0.000000e+00   0.000000e+00   0.000000e+00   0.000000e+00   0.000000e+00   0.000000e+00   0.000000e+00
   1.500000e-02   5.000000e-03   3.521265e-02   4.092108e+02   5.475880e+00   3.231438e-01   2.863872e-01   3.904689e-01  -1.045062e-03  -6.267804e-03   4.963282e-03  -3.440438e+01  -4.607373e+01  -6.043497e+01  -9.728052e+00   2.528969e+00   1.047662e+01  -1.283291e+06   5.957724e+05  -7.601106e+04  -3.510297e+06  -2.793808e+06  -8.123082e+06  -1.282782e+06  -6.810678e+05  -5.788424e+06  -6.338312e+06   5.957653e+05   2.113257e+06   2.024722e+05  -1.836171e+07  -7.868020e+04  -1.281975e+06  -6.808840e+05  -5.788435e+06  -6.338040e+06   5.968452e+05   2.112878e+06   2.023643e+05  -1.836182e+07  -7.726368e+04  -1.113474e+03   1.151904e+03  -3.519101e-02  -7.682062e+02   1.085630e+02   8.944519e-02   6.615550e+03   5.958953e+03   6.712670e-01  -6.293250e-01   6.949736e-01  -3.477955e-01  -2.728437e-01   2.214569e-01   9.362228e-01   7.276719e-01   6.840822e-01   5.025084e-02   5.724287e+03   4.900999e+03   1.297116e-01   3.581620e+03   4.862041e-01   4.545532e-01   2.279773e+07   1.842390e+07  -2.700809e-01   1.902787e+07   2.205636e+03   1.984611e+03   1.374054e+07   2.603701e+07  -3.097608e+00  -2.556784e+01   4.251245e-01   9.684104e+00   5.190111e-01  -1.397083e+00  -9.413441e+00   1.982688e+01   4.162393e+00   1.096172e+01  -1.821315e+00   1.324468e+00  -2.701657e-01   3.810504e-01   4.033371e+01  -4.001063e+01  -2.733090e+01   4.162393e+00  -2.701657e-01  -2.733090e+01   6.143096e+00   1.925620e+01  -1.981479e+01   4.818628e+00  -2.107751e+01   2.019584e+01   8.637779e+01   2.043970e+07   2.044039e+07   2.044034e+07   9.079827e+03   9.079827e+03   6.416706e+01   4.864880e+01   4.184143e+01  -4.697103e+01   3.235251e+01  -6.429020e+01  -4.944380e+01  -2.717907e+01  -2.933506e-01  -4.130879e-01   8.621507e-01  -4.255361e-01  -7.511382e-01  -5.046884e-01   8.560750e-01  -5.149269e-01   4.456303e-02  -1.917025e+07  -1.278865e+06   1.968559e+07   2.408165e-01   7.008797e-01   6.713978e-01  -9.448422e-01   1.107038e-02   3.273388e-01   2.219925e-01  -7.131936e-01   6.648867e-01  -4.576003e+01   7.725254e+00   1.459610e+01  -3.715777e-01   4.124750e-01   8.317418e-01   5.528912e-01   8.180083e-01  -1.586621e-01  -7.458159e-01   4.009075e-01  -5.320074e-01
   1.500000e-02   5.000000e-03   1.056380e-01   0.000000e+00   0.000000e+00   0.000000e+00   0.000000e+00   0.000000e+00   0.000000e+00   0.000000e+00   0.000000e+00   0.000000e+00   0.000000e+00   0.000000e+00   0.000000e+00   0.000000e+00   0.000000e+00   0.000000e+00   0.000000e+00   0.000000e+00   0.000000e+00   0.000000e+00   0.000000e+00   0.000000e+00   0.000000e+00   0.000000e+00   0.000000e+00   0.000000e+00   0.000000e+00   0.000000e+00   0.000000e+00   0.000000e+00   0.000000e+00   0.000000e+00   0.000000e+00   0.000000e+00   0.000000e+00   0.000000e+00   0.000000e+00   0.000000e+00   0.000000e+00   0.000000e+00   0.000000e+00   0.000000e+00   0.000000e+00   0.000000e+00   0.000000e+00   0.000000e+00   0.000000e+00   0.000000e+00   0.000000e+00   0.000000e+00   0.000000e+00   0.000000e+00   0.000000e+00   0.000000e+00   0.000000e+00   0.000000e+00   0.000000e+00   0.000000e+00   0.000000e+00   0.000000e+00   0.000000e+00   0.000000e+00   0.000000e+00   0.000000e+00   0.000000e+00   0.000000e+00   0.000000e+00   0.000000e+00   0.000000e+00   0.000000e+00   0.000000e+00   0.000000e+00   0.000000e+00   0.000000e+00   0.000000e+00   0.000000e+00   0.000000e+00   0.000000e+00   0.000000e+00   0.000000e+00   0.000000e+00   0.000000e+00   0.000000e+00   0.000000e+00   0.000000e+00   0.000000e+00   0.000000e+00   0.000000e+00   0.000000e+00   0.000000e+00   0.000000e+00   0.000000e+00   0.000000e+00   0.000000e+00   0.000000e+00   0.000000e+00   0.000000e+00   0.000000e+00   0.000000e+00   0.000000e+00   0.000000e+00   0.000000e+00   0.000000e+00   0.000000e+00   0.000000e+00   0.000000e+00   0.000000e+00   0.000000e+00   0.000000e+00   0.000000e+00   0.000000e+00   0.000000e+00   0.000000e+00   0.000000e+00   0.000000e+00   0.000000e+00   0.000000e+00   0.000000e+00   0.000000e+00   0.000000e+00   0.000000e+00   0.000000e+00   0.000000e+00   0.000000e+00   0.000000e+00   0.000000e+00   0.000000e+00   0.000000e+00   0.000000e+00   0.000000e+00   0.000000e+00   0.000000e+00   0.000000e+00   0.000000e+00   0.000000e+00   0.000000e+00   0.000000e+00   0.000000e+00   0.000000e+00   0.000000e+00   0.000000e+00   0.000000e+00   0.000000e+00   0.000000e+00
   1.500000e-02   1.500000e-02   3.521265e-02   4.091480e+02   5.476874e+00   3.253078e-01   2.986297e-01   3.760624e-01   5.095323e-03  -1.075960e-02  -4.861309e-03  -9.994452e+01  -9.732167e+01  -1.556007e+02  -3.199951e+00  -1.012930e+00   1.429932e+01  -2.493024e+05   1.279450e+06  -4.560281e+06   2.248084e+06   3.016510e+06  -1.208428e+05  -2.486996e+05  -7.549609e+05   2.222089e+06   5.251152e+06   1.279804e+06   3.132276e+05   3.811626e+06  -5.504264e+05  -4.571776e+06  -2.456548e+05  -7.547091e+05   2.222143e+06   5.251095e+06   1.282769e+06   3.128747e+05   3.811634e+06  -5.509448e+05  -4.567035e+06   1.533153e+03   2.303054e+01   2.602379e-02  -3.688668e+02   5.807185e+02  -1.022980e-01   4.346935e+03  -7.767552e+03   1.659214e-01   9.045285e-01   4.254744e-01  -2.828019e-02  -5.728029e-02   5.551822e-02  -9.968133e-01   4.225485e-01  -9.032659e-01  -7.458911e-02   3.244700e+03   7.058204e+03   8.886008e-02  -3.294599e+03   9.950876e-02  -1.444781e-01   1.069123e+07   3.033631e+07  -4.806640e-01  -1.697197e+07   3.994412e+02  -6.738051e+02   1.367585e+07   2.645251e+07   4.493094e-01  -6.242417e+01   1.475012e-01  -1.785958e+00  -1.336723e-01  -4.709639e+00  -2.060912e+01   4.221824e+01   2.980066e+00   1.051786e+00   1.841295e-01  -1.043311e+00   1.863212e+00   7.524878e-02   3.096946e+00   1.792622e+01  -3.530817e+01   2.980066e+00   1.863212e+00  -3.530817e+01   4.237612e-03   1.640538e+00   9.000733e+00   1.047549e+00  -1.456408e+00  -8.925484e+00   2.101681e+02   8.396702e+06   8.403136e+06   8.400901e+06   9.058426e+03   9.058426e+03   3.990230e+01   3.776809e+01   1.287500e+01  -1.176223e+02   6.426331e+01  -1.602147e+02  -1.003266e+02  -9.232556e+01  -1.261696e-02   2.614913e-01  -9.651234e-01  -9.751369e-01   2.103440e-01   6.973864e-02  -2.212439e-01  -9.420073e-01  -2.523359e-01  -8.075287e+06  -1.712971e+06   6.258124e+06  -5.976805e-01   3.773015e-01   7.074049e-01  -4.171702e-01   6.071322e-01  -6.762836e-01   6.846511e-01   6.993097e-01   2.054721e-01  -3.743612e+01   2.908496e+00   4.062733e+00  -3.951239e-02  -2.230714e-01   9.740010e-01  -9.390753e-01   3.413660e-01   4.008607e-02   3.414329e-01   9.130764e-01   2.229690e-01
   1.500000e-02   1.500000e-02   1.056380e-01   0.000000e+00   0.000000e+00   0.000000e+00   0.000000e+00   0.000000e+00   0.000000e+00   0.000000e+00   0.000000e+00   0.000000e+00   0.000000e+00   0.000000e+00   0.000000e+00   0.000000e+00   0.000000e+00   0.000000e+00   0.000000e+00   0.000000e+00   0.000000e+00   0.000000e+00   0.000000e+00   0.000000e+00   0.000000e+00   0.000000e+00   0.000000e+00   0.000000e+00   0.000000e+00   0.000000e+00   0.000000e+00   0.000000e+00   0.000000e+00   0.000000e+00   0.000000e+00   0.000000e+00   0.000000e+00   0.000000e+00   0.000000e+00   0.000000e+00   0.000000e+00   0.000000e+00   0.000000e+00   0.000000e+00   0.000000e+00   0.000000e+00   0.000000e+00   0.000000e+00   0.000000e+00   0.000000e+00   0.000000e+00   0.000000e+00   0.000000e+00   0.000000e+00   0.000000e+00   0.000000e+00   0.000000e+00   0.000000e+00   0.000000e+00   0.000000e+00   0.000000e+00   0.000000e+00   0.000000e+00   0.000000e+00   0.000000e+00   0.000000e+00   0.000000e+00   0.000000e+00   0.000000e+00   0.000000e+00   0.000000e+00   0.000000e+00   0.000000e+00   0.000000e+00   0.000000e+00   0.000000e+00   0.000000e+00   0.000000e+00   0.000000e+00   0.000000e+00   0.000000e+00   0.000000e+00   0.000000e+00   0.000000e+00   0.000000e+00   0.000000e+00   0.000000e+00   0.000000e+00   0.000000e+00   0.000000e+00   0.000000e+00   0.000000e+00   0.000000e+00   0.000000e+00   0.000000e+00   0.000000e+00   0.000000e+00   0.000000e+00   0.000000e+00   0.000000e+00   0.000000e+00   0.000000e+00   0.000000e+00   0.000000e+00   0.000000e+00   0.000000e+00   0.000000e+00   0.000000e+00   0.000000e+00   0.000000e+00   0.000000e+00   0.000000e+00   0.000000e+00   0.000000e+00   0.000000e+00   0.000000e+00   0.000000e+00   0.000000e+00   0.000000e+00   0.000000e+00   0.000000e+00   0.000000e+00   0.000000e+00   0.000000e+00   0.000000e+00   0.000000e+00   0.000000e+00   0.000000e+00   0.000000e+00   0.000000e+00   0.000000e+00   0.000000e+00   0.000000e+00   0.000000e+00   0.000000e+00   0.000000e+00   0.000000e+00   0.000000e+00   0.000000e+00   0.000000e+00   0.000000e+00   0.000000e+00   0.000000e+00   0.000000e+00   0.000000e+00   0.000000e+00
