     VARIABLES=
              x              y              z      nomin_den    nomin_voidr      fabric_xx      fabric_yy      fabric_zz      fabric_xy      fabric_xz      fabric_yz       sigma_xx       sigma_yy       sigma_zz       sigma_xy       sigma_xz       sigma_yz    sigmaDot_xx    sigmaDot_yy    sigmaDot_zz    sigmaDot_xy    sigmaDot_xz    sigmaDot_yz       Oldro_xx       Oldro_xy       Oldro_xz       Oldro_yx       Oldro_yy       Oldro_yz       Oldro_zx       Oldro_zy       Oldro_zz       Trues_xx       Trues_xy       Trues_xz       Trues_yx       Trues_yy       Trues_yz       Trues_zx       Trues_zy       Trues_zz           F_xX           F_xY           F_xZ           F_yX           F_yY           F_yZ           F_zX           F_zY           F_zZ           R_xX           R_xY           R_xZ           R_yX           R_yY           R_yZ           R_zX           R_zY           R_zZ           U_xX           U_yY           U_zZ           U_xY           U_xZ           U_yZ       Green_xx       Green_yy       Green_zz       Green_xy       Green_xz       Green_yz      Green_vol      Green_shr       Euler_xx       Euler_yy       Euler_zz       Euler_xy       Euler_xz       Euler_yz      Euler_vol      Euler_shr           l_xx           l_xy           l_xz           l_yx           l_yy           l_yz           l_zx           l_zy           l_zz           d_xx           d_yy           d_zz           d_xy           d_xz           d_yz           w_xy           w_xz           w_yz     norm_sigma  norm_sigmaDot     norm_Oldro     norm_Trues         norm_F         norm_U         norm_l         norm_d         norm_w              p              q        sigma_1        sigma_2        sigma_3     sigma_1_v1     sigma_1_v2     sigma_1_v3     sigma_2_v1     sigma_2_v2     sigma_2_v3     sigma_3_v1     sigma_3_v2     sigma_3_v3     sigmaDot_1     sigmaDot_2     sigmaDot_3  sigmaDot_1_v1  sigmaDot_1_v2  sigmaDot_1_v3  sigmaDot_2_v1  sigmaDot_2_v2  sigmaDot_2_v3  sigmaDot_3_v1  sigmaDot_3_v2  sigmaDot_3_v3            d_1            d_2            d_3         d_1_v1         d_1_v2         d_1_v3         d_2_v1         d_2_v2         d_2_v3         d_3_v1         d_3_v2         d_3_v3
ZONE I=2, J=2, K=2, DATAPACKING=POINT, STRANDID=5, SOLUTIONTIME=2
   4.990966e-03   5.011199e-03   4.580863e-03   1.717414e+03   5.430174e-01   3.899030e-01   2.892629e-01   3.208342e-01   2.956019e-03   1.297040e-02   2.130855e-02  -3.936157e+04  -2.579434e+04  -2.951974e+04  -2.744863e+03   1.251870e+03  -5.521700e+03  -8.512532e+05   1.267042e+06  -1.539089e+07   2.211902e+07   3.081485e+07  -4.556862e+07  -8.566234e+05  -5.257690e+06   4.701539e+06   4.948744e+07   1.261498e+06  -4.332245e+06   5.692101e+07  -8.680291e+07  -1.539215e+07  -8.485338e+05  -5.257106e+06   4.701265e+06   4.948798e+07   1.266800e+06  -4.331164e+06   5.692077e+07  -8.680172e+07  -1.538609e+07   9.994852e-01  -3.325744e-05  -9.841557e-04   1.081728e-03   9.967554e-01  -4.983126e-04  -2.225294e-04  -6.961827e-03   1.000618e+00   9.999998e-01  -5.596133e-04  -3.835910e-04   5.608518e-04   9.999946e-01   3.236152e-03   3.817780e-04  -3.236367e-03   9.999947e-01   9.994855e-01   9.967725e-01   1.000611e+00   5.231168e-04  -6.024211e-04  -3.736125e-03  -5.140433e-04  -3.215129e-03   6.186075e-04   5.232634e-04  -6.034275e-04  -3.731396e-03  -1.036855e-03   4.958578e-03  -5.159715e-04  -3.288307e-03   6.129424e-04   5.237306e-04  -5.994307e-04  -3.738075e-03  -1.063779e-03   4.984886e-03  -6.616680e-02  -5.310566e-02  -5.200063e-02  -5.113004e-02  -1.035745e-01   7.250226e-03  -5.221682e-02   6.507148e-02  -3.577864e-02  -6.616680e-02  -1.035745e-01  -3.577864e-02  -5.211785e-02  -5.210873e-02   3.616085e-02  -9.878101e-04   1.080958e-04  -2.891063e-02   5.626230e+04   1.163291e+08   1.163250e+08   1.163234e+08   1.730254e+00   1.730254e+00   1.775890e-01   1.728127e-01   4.090994e-02  -3.155855e+04   1.652408e+04  -3.986165e+04  -3.367669e+04  -2.113731e+04   9.834328e-01   1.809742e-01  -1.040804e-02   9.585067e-02  -5.678786e-01  -8.175124e-01   1.538592e-01  -8.029709e-01   5.758169e-01  -1.362660e+08   4.109391e+07   8.019700e+07   4.865732e-01  -5.847597e-01  -6.490783e-01   8.729749e-01   3.544153e-01   3.351189e-01  -3.407923e-02   7.296889e-01  -6.829295e-01  -1.402455e-01  -9.613935e-02   3.086494e-02  -5.782245e-01  -8.158555e-01  -6.016369e-03   5.599543e-01  -4.022002e-01   7.243522e-01   5.933865e-01  -4.154693e-01  -6.894039e-01
   4.990966e-03   5.011199e-03   1.372785e-02   1.467348e+03   8.059793e-01   2.992565e-01   4.136307e-01   2.871128e-01  -3.767567e-02   1.252264e-02  -1.338835e-02  -3.129403e+04  -4.713015e+04  -2.290427e+04   6.774640e+03  -2.546003e+03   7.603205e+02   1.095438e+07   1.868356e+07   3.120143e+06  -6.233447e+06   3.515927e+06  -7.392765e+06   1.095483e+07  -5.705891e+06   4.665090e+06  -6.763710e+06   1.869017e+07  -7.991206e+06   2.371322e+06  -6.791308e+06   3.120053e+06   1.095283e+07  -5.705460e+06   4.664925e+06  -6.763276e+06   1.868716e+07  -7.991155e+06   2.371162e+06  -6.791262e+06   3.118592e+06   1.003145e+00  -8.102304e-03  -1.395656e-03  -1.477095e-03   1.009860e+00   1.194637e-03  -4.223812e-04   3.622918e-03   1.002894e+00   9.999945e-01  -3.290352e-03  -4.821147e-04   3.289768e-03   9.999939e-01  -1.206902e-03   4.860829e-04   1.205309e-03   9.999992e-01   1.003134e+00   1.009885e+00   1.002892e+00  -4.778293e-03  -9.042289e-04   2.408019e-03   3.150722e-03   9.948083e-03   2.899414e-03  -4.810486e-03  -9.127065e-04   2.425562e-03   5.332740e-03   7.818695e-03   3.116368e-03   9.662052e-03   2.874567e-03  -4.705084e-03  -8.925661e-04   2.359324e-03   5.217662e-03   7.600874e-03  -1.276471e-02  -6.283792e-02   7.893452e-02   5.618236e-02   8.054142e-02   1.449031e-01   6.384393e-03  -3.929268e-02  -3.967781e-03  -1.276471e-02   8.054142e-02  -3.967781e-03  -3.327778e-03   4.265945e-02   5.280522e-02  -5.951014e-02   3.627506e-02   9.209789e-02   6.189584e+04   2.635261e+07   2.635788e+07   2.635447e+07   1.741263e+00   1.741263e+00   2.063563e-01   1.261118e-01   1.633362e-01  -3.377615e+04   2.476371e+04  -4.974162e+04  -2.943233e+04  -2.215451e+04  -3.523742e-01   9.340692e-01  -5.785432e-02  -8.860806e-01  -3.528863e-01  -3.005535e-01   3.011538e-01   5.464372e-02  -9.520086e-01   5.693063e+05   7.279783e+06   2.490899e+07   1.981577e-02   3.575303e-01   9.336913e-01  -8.893931e-01  -4.202934e-01   1.798149e-01   4.567135e-01  -8.339818e-01   3.096566e-01  -6.237072e-02   1.807076e-02   1.081089e-01   6.366296e-01   2.802810e-01  -7.184325e-01   7.583370e-01  -3.967791e-01   5.171956e-01   1.400989e-01   8.740761e-01   4.651487e-01
   4.990966e-03   1.498016e-02   4.580863e-03   1.439701e+03   8.406598e-01   3.040568e-01   3.680576e-01   3.278855e-01  -5.541944e-02  -8.177985e-03   2.200232e-02  -2.676229e+04  -3.622956e+04  -3.987849e+04   9.320515e+03   1.523584e+03  -1.772796e+03   1.060394e+07  -6.411855e+06   2.667539e+06  -2.540726e+06   1.042151e+05   4.900127e+06   1.060279e+07   4.913443e+05  -2.971527e+06  -5.572323e+06  -6.415879e+06   3.446574e+06   3.179929e+06   6.356120e+06   2.666232e+06   1.060546e+07   4.904149e+05  -2.971677e+06  -5.573256e+06  -6.412260e+06   3.446750e+06   3.179775e+06   6.356298e+06   2.670215e+06   1.008153e+00  -1.847196e-04   1.365462e-02   1.925082e-03   9.988178e-01  -1.410602e-03   4.215150e-03   3.486086e-03   1.007532e+00   9.999885e-01  -1.058807e-03   4.685851e-03   1.070272e-03   9.999964e-01  -2.444839e-03  -4.683246e-03   2.449826e-03   9.999860e-01   1.008124e+00   9.988230e-01   1.007585e+00   8.679627e-04   8.934439e-03   1.043223e-03   8.196879e-03  -1.175374e-03   7.654200e-03   8.756377e-04   9.005066e-03   1.050442e-03   4.891902e-03   1.214599e-02   7.988535e-03  -1.184952e-03   7.305075e-03   8.385563e-04   8.725401e-03   1.006530e-03   4.702886e-03   1.177374e-02  -1.377330e-02   1.878644e-02   2.151432e-02  -4.729961e-02  -6.659679e-02  -2.259181e-02  -1.600167e-02   5.664506e-02  -1.951606e-02  -1.377330e-02  -6.659679e-02  -1.951606e-02  -1.425658e-02   2.756327e-03   1.702662e-02   3.304302e-02   1.875799e-02  -3.961844e-02   6.167470e+04   1.622230e+07   1.622358e+07   1.622495e+07   1.740503e+00   1.740503e+00   1.096990e-01   7.750626e-02   7.763149e-02  -3.429011e+04   2.038867e+04  -4.347529e+04  -3.837452e+04  -2.102052e+04  -4.469316e-01   7.098923e-01   5.443391e-01  -2.690770e-01   4.736346e-01  -8.386107e-01   8.531411e-01   5.212707e-01   2.066659e-02  -1.153804e+07   5.927127e+06   1.247054e+07   2.781264e-01   8.520644e-01  -4.434320e-01   3.797001e-02  -4.710383e-01  -8.812952e-01  -9.597937e-01   2.282743e-01  -1.633611e-01  -7.547816e-02  -1.469325e-02  -9.714749e-03  -2.276222e-01  -9.284069e-01   2.936815e-01   3.616740e-01   1.994157e-01   9.107279e-01  -9.040907e-01   3.135188e-01   2.903892e-01
   4.990966e-03   1.498016e-02   1.372785e-02   1.567917e+03   6.901405e-01   3.535394e-01   2.970742e-01   3.493864e-01  -1.916833e-02  -9.958529e-03   5.886884e-02  -3.797594e+04  -5.670466e+04  -8.299982e+04   6.407251e+03  -4.996975e+03  -1.558911e+03   1.475990e+07   2.788135e+07   2.175243e+07  -3.028715e+07   2.110387e+07  -3.401544e+07   1.475474e+07  -2.986832e+05   1.853001e+07  -6.028571e+07   2.788240e+07  -1.823155e+07   2.367715e+07  -4.981262e+07   2.177052e+07   1.475330e+07  -2.984424e+05   1.852982e+07  -6.028547e+07   2.788025e+07  -1.823161e+07   2.367696e+07  -4.981268e+07   2.176737e+07   9.618448e-01   1.485398e-03  -6.203312e-04  -1.550833e-02   9.959789e-01   2.522584e-03   3.834591e-03  -7.077089e-03   1.003398e+00   9.999598e-01   8.686167e-03  -2.218719e-03  -8.675417e-03   9.999508e-01   4.809931e-03   2.260390e-03  -4.790489e-03   9.999860e-01   9.619493e-01   9.959767e-01   1.003397e+00  -7.171191e-03   1.625880e-03  -2.289696e-03  -3.729970e-02  -3.986829e-03   3.407204e-03  -7.022192e-03   1.605919e-03  -2.294809e-03  -1.262644e-02   2.651796e-02  -4.056564e-02  -4.029563e-03   3.397580e-03  -7.314065e-03   1.607086e-03  -2.268975e-03  -1.373254e-02   2.863630e-02  -7.070786e-02  -1.280480e-02   4.721366e-03  -1.221287e-01  -3.596151e-03  -3.297419e-02  -3.395674e-02  -6.505197e-02   1.122049e-01  -7.070786e-02  -3.596151e-03   1.122049e-01  -6.746675e-02  -1.461769e-02  -4.901308e-02   5.466196e-02   1.933905e-02   1.603889e-02   1.080902e+05   9.390959e+07   9.392123e+07   9.391944e+07   1.710041e+00   1.710041e+00   1.979299e-01   1.787118e-01   8.507849e-02  -5.922681e+04   4.176514e+04  -8.359045e+04  -5.871768e+04  -3.537229e+04  -1.060216e-01  -3.176937e-02  -9.938562e-01  -2.971715e-01   9.548234e-01   1.179707e-03   9.489197e-01   2.954708e-01  -1.106729e-01  -4.480849e+07  -3.914140e+06   1.131163e+08  -6.042054e-01  -7.260348e-01  -3.283432e-01  -5.897496e-01   1.303540e-01   7.969964e-01   5.358463e-01  -6.751898e-01   5.069393e-01  -1.190333e-01   2.624242e-02   1.306917e-01   8.182704e-01   5.496645e-01   1.682334e-01   5.721502e-01  -7.505454e-01  -3.306446e-01   5.547684e-02  -3.668115e-01   9.286397e-01
   1.494134e-02   5.011199e-03   4.580863e-03   1.667006e+03   5.896761e-01   3.209874e-01   3.448441e-01   3.341685e-01  -1.486372e-02  -1.965843e-02  -1.184630e-03  -6.922151e+04  -4.548149e+04  -3.253649e+04  -1.359658e+02  -2.165305e+03  -6.722779e+02  -9.684917e+06   1.281540e+07  -5.982517e+06  -4.468236e+06  -4.118044e+06  -1.753259e+06  -9.681497e+06  -7.282476e+06  -5.829374e+06  -1.661985e+06   1.281549e+07   7.812799e+05  -2.399987e+06  -4.292159e+06  -5.975534e+06  -9.690580e+06  -7.282508e+06  -5.829650e+06  -1.661989e+06   1.280953e+07   7.811891e+05  -2.400279e+06  -4.292245e+06  -5.979804e+06   9.992593e-01  -6.294064e-04  -1.669854e-03  -3.456528e-03   1.003105e+00   2.885151e-03   5.655080e-04  -9.847795e-04   1.000955e+00   9.999984e-01   1.412961e-03  -1.114896e-03  -1.410808e-03   9.999971e-01   1.930300e-03   1.117620e-03  -1.928724e-03   9.999975e-01   9.992632e-01   1.003103e+00   1.000960e+00  -2.045694e-03  -5.552353e-04   9.522180e-04  -7.343304e-04   3.110467e-03   9.606419e-04  -2.048379e-03  -5.562711e-04   9.547202e-04   1.112260e-03   3.488962e-03  -7.489063e-04   3.090532e-03   9.515222e-04  -2.034400e-03  -5.487873e-04   9.391457e-04   1.097716e-03   3.468582e-03   2.460293e-02  -2.685499e-02   4.866098e-03  -4.143375e-02   5.633264e-04   4.069114e-02   4.262699e-02  -7.677508e-02   1.060590e-01   2.460293e-02   5.633264e-04   1.060590e-01  -3.414437e-02   2.374655e-02  -1.804197e-02   7.289381e-03  -1.888045e-02   5.873311e-02   8.904580e+04   2.020798e+07   2.020511e+07   2.020708e+07   1.733976e+00   1.733976e+00   1.538928e-01   1.263512e-01   8.785425e-02  -4.907983e+04   3.247442e+04  -6.935596e+04  -4.551352e+04  -3.237000e+04  -9.981747e-01  -2.837257e-03  -6.032535e-02   5.815804e-03  -9.987692e-01  -4.925663e-02  -6.011135e-02  -4.951757e-02   9.969627e-01  -1.137096e+07  -5.282447e+06   1.380137e+07   8.545591e-01   1.469358e-01   4.981352e-01   5.171402e-01  -1.522726e-01  -8.422465e-01   4.790378e-02  -9.773551e-01   2.061123e-01  -2.362366e-02   3.608766e-02   1.187613e-01  -5.750152e-01  -8.180983e-01  -8.524499e-03  -7.546299e-01   5.263227e-01   3.918139e-01   3.160557e-01  -2.317318e-01   9.200050e-01
   1.494134e-02   5.011199e-03   1.372785e-02   1.376826e+03   9.247162e-01   3.566969e-01   3.511385e-01   2.921646e-01   1.134924e-03   9.882672e-03  -1.864739e-02  -3.140268e+04  -3.477721e+04  -3.262959e+04  -3.266884e+03  -2.287629e+02  -3.123850e+03   2.016467e+07   1.882476e+07  -4.204922e+06  -7.292454e+06   1.060840e+07   1.285061e+07   2.016062e+07  -1.489663e+07   2.815886e+07   3.042443e+05   1.882805e+07   7.941669e+06  -6.942448e+06   1.776322e+07  -4.202516e+06   2.015979e+07  -1.489671e+07   2.815885e+07   3.041589e+05   1.882713e+07   7.941586e+06  -6.942449e+06   1.776314e+07  -4.203376e+06   9.940362e-01  -1.301231e-04   2.093291e-03  -8.949286e-04   1.002483e+00  -1.638185e-03  -1.148401e-03   7.666688e-04   1.000627e+00   9.999986e-01   3.841145e-04   1.624725e-03  -3.821644e-04   9.999992e-01  -1.200363e-03  -1.625185e-03   1.199741e-03   9.999980e-01   9.940370e-01   1.002483e+00   1.000630e+00  -5.144820e-04   4.677110e-04  -4.368875e-04  -5.944998e-03   2.485928e-03   6.302461e-04  -5.136889e-04   4.665762e-04  -4.376877e-04  -9.429413e-04   5.202494e-03  -6.016364e-03   2.474157e-03   6.260469e-04  -5.149109e-04   4.811568e-04  -4.316219e-04  -9.720535e-04   5.243488e-03  -5.929438e-02  -5.642518e-02   8.667245e-02  -6.443441e-02   4.929150e-02   4.510391e-02  -9.160546e-02   1.192985e-02   3.637333e-02  -5.929438e-02   4.929150e-02   3.637333e-02  -6.042979e-02  -2.466502e-03   2.851688e-02   4.004614e-03   8.913895e-02   1.658703e-02   5.745704e+04   4.711894e+07   4.712038e+07   4.711971e+07   1.730417e+00   1.730417e+00   1.807884e-01   1.273209e-01   1.283505e-01  -3.293649e+04   8.282107e+03  -3.809845e+04  -3.205258e+04  -2.865844e+04   3.906032e-01   8.009772e-01   4.537231e-01   6.198240e-01   1.355789e-01  -7.729402e-01  -6.806228e-01   5.831414e-01  -4.435073e-01  -1.497474e+07   2.019210e+07   2.956714e+07  -1.760491e-01   4.591667e-01  -8.707311e-01  -9.250261e-01  -3.796745e-01  -1.318874e-02   3.366502e-01  -8.031272e-01  -4.915826e-01  -8.697572e-02   2.334028e-02   9.000590e-02  -9.051317e-01  -4.178216e-01   7.849642e-02   2.541391e-01  -3.837577e-01   8.877744e-01  -3.408077e-01   8.235017e-01   4.535361e-01
   1.494134e-02   1.498016e-02   4.580863e-03   1.529019e+03   7.331375e-01   3.525461e-01   3.255570e-01   3.218969e-01  -4.003178e-03  -3.224479e-02   2.542613e-03  -2.222930e+04  -1.925499e+04  -1.652620e+04   6.612576e+03   5.707978e+03  -1.910858e+03   3.194220e+06   4.560794e+05   3.831155e+06   6.839409e+06  -8.068088e+06  -2.586842e+06   3.189375e+06  -1.650780e+07  -2.091510e+07   3.020363e+07   4.523935e+05   5.479120e+06   4.787021e+06  -1.065537e+07   3.830572e+06   3.190351e+06  -1.650808e+07  -2.091535e+07   3.020334e+07   4.532387e+05   5.479197e+06   4.786771e+06  -1.065528e+07   3.831297e+06   9.933970e-01   1.663705e-02   2.183215e-02  -1.423664e-02   9.949387e-01  -1.523493e-02   1.311599e-02   4.435089e-03   1.007150e+00   9.998709e-01   1.547279e-02   4.328762e-03  -1.543012e-02   9.998337e-01  -9.724837e-03  -4.478512e-03   9.656789e-03   9.999433e-01   9.934297e-01   9.950734e-01   1.007335e+00   1.263017e-03   1.755387e-02  -5.168761e-03  -6.393830e-03  -4.900288e-03   7.529803e-03   1.210390e-03   1.755733e-02  -5.163901e-03  -1.254772e-03   2.294413e-02  -6.908563e-03  -4.943515e-03   6.499014e-03   1.260416e-03   1.754697e-02  -5.577060e-03  -1.784355e-03   2.289147e-02  -2.140715e-02   1.945419e-01   1.156552e-01   1.794672e-01  -3.043182e-02  -3.675649e-02   9.138725e-02   5.183827e-02   7.945396e-03  -2.140715e-02  -3.043182e-02   7.945396e-03   1.870046e-01   1.035212e-01   7.540891e-03   7.537341e-03   1.213396e-02  -4.429738e-02   3.602746e+04   4.258702e+07   4.258792e+07   4.258806e+07   1.729876e+00   1.729876e+00   3.118790e-01   3.048540e-01   6.582252e-02  -1.933683e+04   1.633429e+04  -3.002807e+04  -1.578268e+04  -1.219974e+04   7.456561e-01  -5.360468e-01  -3.957914e-01  -1.806703e-01  -7.343828e-01   6.542478e-01  -6.413698e-01  -4.163361e-01  -6.444447e-01  -3.182195e+07   6.683698e+06   3.261971e+07  -6.465574e-01   7.027834e-01   2.967474e-01  -3.096310e-01   1.137529e-01  -9.440280e-01  -6.972031e-01  -7.022505e-01   1.440557e-01  -2.328921e-01  -7.571733e-03   1.965703e-01   7.094402e-01  -6.446758e-01  -2.847591e-01  -9.459429e-02  -4.874948e-01   8.679866e-01  -6.983885e-01  -5.888480e-01  -4.068311e-01
   1.494134e-02   1.498016e-02   1.372785e-02   1.418901e+03   8.676421e-01   4.291507e-01   3.060914e-01   2.647578e-01  -4.313926e-02  -5.919767e-03   5.937415e-03  -7.399565e+03  -5.385431e+03  -6.405405e+03   1.506820e+03   3.771226e+02  -6.432926e+02   5.978944e+06   9.678217e+06   1.268753e+06   7.662605e+06   7.069983e+06  -3.587411e+06   5.978561e+06   3.971377e+06   1.330485e+07   1.135761e+07   9.676101e+06   2.021288e+07   8.358039e+05  -2.738681e+07   1.270911e+06   5.978553e+06   3.971379e+06   1.330485e+07   1.135761e+07   9.676094e+06   2.021288e+07   8.358040e+05  -2.738681e+07   1.270904e+06   1.000368e+00  -1.167442e-02  -2.533407e-03  -2.581062e-04   9.896117e-01   3.323289e-03  -2.055486e-04   1.251453e-02   9.971793e-01   9.999829e-01  -5.731630e-03  -1.143180e-03   5.726281e-03   9.999729e-01  -4.628880e-03   1.169680e-03   4.622255e-03   9.999886e-01   1.000349e+00   9.897097e-01   9.971555e-01  -5.992789e-03  -1.347953e-03   7.946936e-03   3.681557e-04  -1.018787e-02  -2.807950e-03  -5.968358e-03  -1.370083e-03   7.898784e-03  -4.209220e-03   1.312602e-02   3.642291e-04  -1.074810e-02  -2.884328e-03  -6.008489e-03  -1.351019e-03   8.044740e-03  -4.422733e-03   1.343086e-02  -1.895524e-02   3.307298e-02   2.879535e-03   2.017577e-01  -1.549367e-01   1.245661e-01   4.041669e-02  -4.195845e-02   1.750546e-01  -1.895524e-02  -1.549367e-01   1.750546e-01   1.174153e-01   2.164811e-02   4.130383e-02  -8.434234e-02  -1.876858e-02   8.326228e-02   1.143915e+04   4.015036e+07   4.015056e+07   4.015056e+07   1.724745e+00   1.724745e+00   3.401879e-01   2.948403e-01   1.696968e-01  -6.396800e+03   2.989299e+03  -8.111297e+03  -6.419330e+03  -4.659772e+03   8.812778e-01  -4.549691e-01  -1.278770e-01   1.833682e-01   7.979525e-02   9.798004e-01  -4.355749e-01  -8.869249e-01   1.537486e-01  -2.443628e+07   5.884022e+06   3.547817e+07   2.642485e-01  -6.557346e-01  -7.072375e-01  -9.248917e-01   3.558161e-02  -3.785622e-01   2.734010e-01   7.541526e-01  -5.970811e-01  -2.242105e-01   3.764001e-02   1.877331e-01   4.905064e-01  -8.691343e-01   6.331643e-02   8.465987e-01   4.580422e-01  -2.710496e-01  -2.065769e-01  -1.865552e-01  -9.604807e-01
