     VARIABLES=
              x              y              z      nomin_den    nomin_voidr      fabric_xx      fabric_yy      fabric_zz      fabric_xy      fabric_xz      fabric_yz       sigma_xx       sigma_yy       sigma_zz       sigma_xy       sigma_xz       sigma_yz    sigmaDot_xx    sigmaDot_yy    sigmaDot_zz    sigmaDot_xy    sigmaDot_xz    sigmaDot_yz       Oldro_xx       Oldro_xy       Oldro_xz       Oldro_yx       Oldro_yy       Oldro_yz       Oldro_zx       Oldro_zy       Oldro_zz       Trues_xx       Trues_xy       Trues_xz       Trues_yx       Trues_yy       Trues_yz       Trues_zx       Trues_zy       Trues_zz           F_xX           F_xY           F_xZ           F_yX           F_yY           F_yZ           F_zX           F_zY           F_zZ           R_xX           R_xY           R_xZ           R_yX           R_yY           R_yZ           R_zX           R_zY           R_zZ           U_xX           U_yY           U_zZ           U_xY           U_xZ           U_yZ       Green_xx       Green_yy       Green_zz       Green_xy       Green_xz       Green_yz      Green_vol      Green_shr       Euler_xx       Euler_yy       Euler_zz       Euler_xy       Euler_xz       Euler_yz      Euler_vol      Euler_shr           l_xx           l_xy           l_xz           l_yx           l_yy           l_yz           l_zx           l_zy           l_zz           d_xx           d_yy           d_zz           d_xy           d_xz           d_yz           w_xy           w_xz           w_yz     norm_sigma  norm_sigmaDot     norm_Oldro     norm_Trues         norm_F         norm_U         norm_l         norm_d         norm_w              p              q        sigma_1        sigma_2        sigma_3     sigma_1_v1     sigma_1_v2     sigma_1_v3     sigma_2_v1     sigma_2_v2     sigma_2_v3     sigma_3_v1     sigma_3_v2     sigma_3_v3     sigmaDot_1     sigmaDot_2     sigmaDot_3  sigmaDot_1_v1  sigmaDot_1_v2  sigmaDot_1_v3  sigmaDot_2_v1  sigmaDot_2_v2  sigmaDot_2_v3  sigmaDot_3_v1  sigmaDot_3_v2  sigmaDot_3_v3            d_1            d_2            d_3         d_1_v1         d_1_v2         d_1_v3         d_2_v1         d_2_v2         d_2_v3         d_3_v1         d_3_v2         d_3_v3
ZONE I=2, J=2, K=2, DATAPACKING=POINT, STRANDID=5, SOLUTIONTIME=3
   4.989151e-03   5.011838e-03   4.578312e-03   1.726006e+03   5.353368e-01   3.712084e-01   2.914203e-01   3.373712e-01   4.350718e-03  -1.742905e-03   2.415493e-02  -7.457391e+04  -4.602343e+04  -5.191411e+04  -3.334026e+03   3.579861e+02  -7.760496e+03   3.418248e+06  -2.680491e+06   5.664676e+05  -2.321502e+04  -2.813146e+03  -1.463875e+06   3.419107e+06  -1.313887e+06  -5.501234e+04   1.260997e+06  -2.680491e+06  -3.149407e+06   5.016820e+04   2.216813e+05   5.677564e+05   3.417477e+06  -1.313959e+06  -5.500416e+04   1.260923e+06  -2.681497e+06  -3.149577e+06   5.017566e+04   2.215122e+05   5.666218e+05   9.986051e-01   4.178791e-03  -1.367488e-03  -1.250690e-03   1.001930e+00  -2.399508e-04   3.179190e-04   2.292392e-03   1.001876e+00   9.999960e-01   2.714232e-03  -8.446802e-04  -2.715297e-03   9.999955e-01  -1.262711e-03   8.412491e-04   1.264999e-03   9.999988e-01   9.986048e-01   1.001940e+00   1.001876e+00   1.460164e-03  -5.240040e-04   1.023711e-03  -1.393057e-03   1.943519e-03   1.878841e-03   1.460294e-03  -5.233827e-04   1.025282e-03   8.097675e-04   3.076353e-03  -1.392941e-03   1.919136e-03   1.870871e-03   1.468613e-03  -5.240010e-04   1.021752e-03   7.990218e-04   3.072347e-03   4.569853e-03   2.341426e-02  -3.025975e-02  -5.511906e-02   5.671112e-03  -9.941476e-03   2.366290e-02   6.428274e-03   1.161572e-02   4.569853e-03   5.671112e-03   1.161572e-02  -1.585240e-02  -3.298421e-03  -1.756601e-03   3.926666e-02  -2.696132e-02  -8.184875e-03   1.025546e+05   5.699120e+06   5.699783e+06   5.699254e+06   1.733453e+00   1.733453e+00   7.341696e-02   2.680481e-02   6.834875e-02  -5.750382e+04   2.992163e+04  -7.497721e+04  -5.710051e+04  -4.043374e+04   9.921893e-01   1.219559e-01   2.621513e-02   8.973869e-02  -5.518635e-01  -8.290921e-01  -8.664550e-02   8.249688e-01  -5.584972e-01  -2.944461e+06   5.760210e+05   3.672664e+06   1.940987e-01  -9.792018e-01   5.907229e-02  -4.066462e-02   5.213438e-02   9.978118e-01   9.801388e-01   1.960761e-01   2.969966e-02  -1.130545e-02   1.206328e-02   2.109886e-02   7.139957e-01   6.827615e-01   1.550705e-01   3.263051e-02   1.887918e-01  -9.814749e-01  -6.993893e-01   7.058288e-01   1.125177e-01
   4.989151e-03   5.011838e-03   1.371737e-02   1.541224e+03   7.194122e-01   3.086649e-01   4.019532e-01   2.893819e-01  -3.097024e-02  -9.316046e-03  -2.385891e-02  -5.154240e+04  -7.168212e+04  -4.274948e+04   9.875253e+03  -7.637027e+03   1.455152e+03   8.287088e+06  -6.971582e+06  -2.763857e+06   2.332232e+05  -5.994442e+05  -2.381649e+06   8.286782e+06   1.839246e+06   9.190303e+05  -1.383042e+06  -6.980544e+06  -3.153635e+06  -2.122855e+06  -1.600154e+06  -2.767128e+06   8.292551e+06   1.838141e+06   9.198909e+05  -1.384148e+06  -6.972522e+06  -3.153798e+06  -2.122007e+06  -1.600316e+06  -2.762344e+06   1.012065e+00  -5.697629e-03   1.392595e-03   3.466848e-03   1.018593e+00   3.372987e-03   2.691494e-03   1.082876e-02   1.010143e+00   9.999896e-01  -4.515640e-03  -6.201770e-04   4.513327e-03   9.999830e-01  -3.681330e-03   6.367901e-04   3.678493e-03   9.999930e-01   1.012072e+00   1.018641e+00   1.010123e+00  -1.093432e-03   2.051053e-03   7.082445e-03   1.214758e-02   1.884055e-02   1.020137e-02  -1.102960e-03   2.069942e-03   7.183184e-03   1.372983e-02   1.017420e-02   1.185640e-02   1.800022e-02   9.946307e-03  -1.104796e-03   1.961964e-03   6.827706e-03   1.326764e-02   9.619253e-03   1.867189e-03  -2.069534e-02  -5.936191e-02  -9.054692e-02  -7.438730e-02   2.966687e-02   1.750843e-02   5.838796e-02  -3.940017e-02   1.867189e-03  -7.438730e-02  -3.940017e-02  -5.562113e-02  -2.092674e-02   4.402742e-02   3.492579e-02  -3.843517e-02  -1.436054e-02   9.969149e+04   1.217023e+07   1.217409e+07   1.217227e+07   1.755671e+00   1.755671e+00   1.543892e-01   1.342737e-01   7.620102e-02  -5.532467e+04   3.363809e+04  -7.627061e+04  -5.178885e+04  -3.791453e+04  -4.019300e-01   9.063588e-01  -1.302535e-01  -7.318687e-01  -4.034718e-01  -5.491618e-01   5.502912e-01   1.253961e-01  -8.255031e-01  -7.766050e+06  -2.435362e+06   8.753061e+06   1.260146e-01   9.278196e-01   3.511000e-01  -1.349160e-01   3.666617e-01  -9.205199e-01   9.828113e-01  -6.862993e-02  -1.713824e-01  -1.164658e-01  -4.492264e-02   4.946819e-02  -3.314766e-01  -8.551556e-01   3.985376e-01  -5.577988e-01  -1.630508e-01  -8.138028e-01   7.609099e-01  -4.920604e-01  -4.229572e-01
   4.989151e-03   1.497765e-02   4.578312e-03   1.436091e+03   8.452865e-01   3.087831e-01   3.671472e-01   3.240697e-01  -2.671746e-02  -2.362149e-02   2.726950e-02  -4.825691e+04  -6.261822e+04  -5.275820e+04   1.528503e+04   2.563556e+03  -4.112354e+03   1.243232e+06  -1.323540e+07   8.939840e+06   1.543476e+06   2.557123e+06  -6.417559e+06   1.234112e+06  -1.248604e+07   1.040754e+07   1.561406e+07  -1.324661e+07  -1.455079e+06  -5.331108e+06  -1.137291e+07   8.959080e+06   1.230304e+06  -1.248484e+07   1.040775e+07   1.561528e+07  -1.325155e+07  -1.455404e+06  -5.330917e+06  -1.137323e+07   8.954916e+06   1.007949e+00  -9.204243e-04   1.432233e-02   1.460320e-03   9.983969e-01   6.428484e-05   2.977189e-03   7.812021e-03   1.011675e+00   9.999835e-01  -1.203404e-03   5.622547e-03   1.225101e-03   9.999918e-01  -3.856933e-03  -5.617860e-03   3.863758e-03   9.999768e-01   1.007918e+00   9.984201e-01   1.011731e+00   2.588408e-04   8.638729e-03   3.955914e-03   7.986195e-03  -1.570828e-03   1.184532e-02   2.767480e-04   8.724112e-03   3.977111e-03   6.086894e-03   1.364834e-02   7.810344e-03  -1.636369e-03   1.133346e-02   2.071458e-04   8.405430e-03   3.852938e-03   5.835811e-03   1.319179e-02  -9.952848e-02  -9.281150e-03  -3.931684e-02   4.101949e-01   1.594636e-02  -8.053756e-02  -3.289803e-01   4.956236e-02   1.624901e-01  -9.952848e-02   1.594636e-02   1.624901e-01   2.004569e-01  -1.841486e-01  -1.548760e-02  -2.097380e-01   1.448317e-01  -6.504996e-02   9.771133e+04   3.040884e+07   3.041643e+07   3.041751e+07   1.742562e+00   1.742562e+00   5.688812e-01   4.303838e-01   3.720155e-01  -5.454444e+04   3.070823e+04  -7.353613e+04  -5.166816e+04  -3.842903e+04   5.229974e-01  -8.225194e-01  -2.234627e-01   1.304126e-01  -1.818674e-01   9.746368e-01  -8.422982e-01  -5.388748e-01   1.215066e-02  -2.467468e+07   4.274369e+05   2.119491e+07  -4.706940e-01   8.556494e-01   2.152005e-01  -6.865630e-01  -2.020176e-01  -6.984412e-01   5.541465e-01   4.765008e-01  -6.825457e-01  -2.951118e-01   6.827941e-02   3.057404e-01  -8.067286e-01   5.045706e-01  -3.075671e-01  -2.447768e-01  -7.590705e-01  -6.032381e-01  -5.378414e-01  -4.113641e-01   7.358711e-01
   4.989151e-03   1.497765e-02   1.371737e-02   1.498830e+03   7.680457e-01   3.489590e-01   3.268533e-01   3.241878e-01  -1.789055e-02  -1.463508e-02   4.623010e-02  -7.598008e+04  -1.104532e+05  -1.322504e+05   1.859928e+04   6.949199e+03  -1.907565e+04   8.689011e+06  -1.876944e+07   6.370147e+06  -1.964093e+05  -4.339901e+06  -5.428188e+06   8.671638e+06  -1.447197e+06  -2.118681e+06   1.076806e+06  -1.875580e+07   3.565177e+06  -6.499047e+06  -1.439632e+07   6.379702e+06   8.671256e+06  -1.447104e+06  -2.118645e+06   1.076900e+06  -1.875635e+07   3.565081e+06  -6.499012e+06  -1.439642e+07   6.379036e+06   9.997294e-01   1.262208e-02  -7.525916e-03  -5.362391e-03   1.001967e+00  -1.967079e-03   3.757293e-04  -2.450142e-03   1.000473e+00   9.999519e-01   8.979876e-03  -3.939697e-03  -8.978961e-03   9.999597e-01   2.500308e-04   3.941783e-03  -2.146444e-04   9.999922e-01   9.997310e-01   1.002040e+00   1.000494e+00   3.615192e-03  -3.564245e-03  -2.249327e-03  -2.560669e-04   2.051299e-03   5.031218e-04   3.622402e-03  -3.568712e-03  -2.258620e-03   7.661180e-04   6.566757e-03  -2.147304e-04   1.941176e-03   4.402106e-04   3.621754e-03  -3.574500e-03  -2.175810e-03   7.222186e-04   6.516639e-03  -9.208223e-02   1.890846e-02   1.925593e-01   7.565187e-02   4.575241e-02   1.665887e-01   4.281219e-02  -9.005213e-02   5.136409e-02  -9.208223e-02   4.575241e-02   5.136409e-02   4.728017e-02   1.176857e-01   3.826829e-02  -2.837170e-02   7.487355e-02   1.283204e-01   1.923000e+05   2.718702e+07   2.715921e+07   2.715934e+07   1.733377e+00   1.733377e+00   3.066995e-01   2.197961e-01   2.139025e-01  -1.062279e+05   6.857462e+04  -1.468655e+05  -1.040454e+05  -6.777267e+04  -2.210401e-01   5.403214e-01   8.119077e-01  -3.460243e-01   7.348896e-01  -5.832705e-01   9.118160e-01   4.098660e-01  -2.452433e-02  -2.541166e+07   4.144972e+06   1.755640e+07  -5.237506e-02  -9.054281e-01  -4.212562e-01  -8.077085e-01   2.864720e-01  -5.153064e-01   5.872510e-01   3.132630e-01  -7.463260e-01  -1.607702e-01   1.688078e-02   1.489237e-01   8.773167e-01  -1.144888e-01  -4.660555e-01   1.413793e-01  -8.663740e-01   4.789656e-01  -4.586146e-01  -4.860951e-01  -7.438980e-01
   1.493560e-02   5.011838e-03   4.578312e-03   1.669637e+03   5.871716e-01   3.128192e-01   3.328496e-01   3.543312e-01   4.603018e-03  -2.015929e-02   3.557548e-04  -1.325402e+05  -8.587810e+04  -8.070229e+04  -2.033653e+03   6.052947e+03   1.481609e+03  -2.413391e+06  -4.959988e+06  -1.083930e+07   1.675806e+06   3.384963e+06  -3.457577e+06  -2.428615e+06   2.347305e+06   7.638603e+05   9.973733e+05  -4.958011e+06  -4.578552e+06   6.022199e+06  -2.332250e+06  -1.084526e+07  -2.418329e+06   2.347464e+06   7.633956e+05   9.975298e+05  -4.951346e+06  -4.578664e+06   6.021724e+06  -2.332368e+06  -1.083900e+07   9.996262e-01  -9.982889e-04  -3.199495e-03  -5.087684e-03   1.004039e+00   6.042351e-03   1.161898e-03  -1.850334e-03   1.001458e+00   9.999955e-01   2.045486e-03  -2.171637e-03  -2.036933e-03   9.999902e-01   3.933361e-03   2.179661e-03  -3.928920e-03   9.999899e-01   9.996346e-01   1.004034e+00   1.001478e+00  -3.047478e-03  -1.028951e-03   2.101101e-03  -3.601191e-04   4.049459e-03   1.481994e-03  -3.054150e-03  -1.032725e-03   2.108460e-03   1.723778e-03   5.130938e-03  -3.889467e-04   4.018534e-03   1.446084e-03  -3.027190e-03  -1.005603e-03   2.064681e-03   1.691890e-03   5.078033e-03  -5.601295e-02  -1.071765e-02   2.742628e-02  -1.796975e-02   1.203458e-02   5.711983e-03   3.968026e-02   1.739301e-02  -3.362725e-02  -5.601295e-02   1.203458e-02  -3.362725e-02  -1.434370e-02   3.355327e-02   1.155250e-02   3.626048e-03  -6.126989e-03  -5.840513e-03   1.775972e+05   1.475187e+07   1.475999e+07   1.475133e+07   1.735034e+00   1.735034e+00   8.667595e-02   8.569201e-02   1.302304e-02  -9.970686e+04   5.076486e+04  -1.333525e+05  -8.604703e+04  -7.972110e+04   9.921182e-01   4.589634e-02  -1.165980e-01   6.867829e-02  -9.774642e-01   1.996170e-01  -1.048087e-01  -2.060514e-01  -9.729121e-01  -1.463267e+07  -4.303475e+06   7.234636e+05   4.438116e-01  -2.533687e-01  -8.595555e-01  -1.493828e-01  -9.666933e-01   2.078190e-01  -8.835814e-01   3.617034e-02  -4.668786e-01  -8.372360e-02  -9.486220e-03   1.560421e-02   7.952752e-01   1.886337e-01  -5.761551e-01   5.920923e-01  -3.749553e-02   8.049974e-01  -1.302464e-01   9.813315e-01   1.415078e-01
   1.493560e-02   5.011838e-03   1.371737e-02   1.378999e+03   9.216839e-01   3.519710e-01   3.495135e-01   2.985155e-01   1.164518e-02   1.952032e-02  -1.279473e-02  -5.386828e+04  -6.842698e+04  -7.303016e+04  -6.055745e+03  -2.959940e+03  -6.856685e+03   1.068589e+07  -8.832011e+06   1.047829e+06   2.594458e+05  -5.595630e+06  -1.832244e+06   1.067695e+07  -1.032612e+06  -1.429371e+06   1.533225e+06  -8.823033e+06  -5.479368e+06  -9.765526e+06   1.812247e+06   1.061420e+06   1.067186e+07  -1.033196e+06  -1.429652e+06   1.532665e+06  -8.829498e+06  -5.480017e+06  -9.765803e+06   1.811601e+06   1.054519e+06   9.925577e-01  -1.284996e-03   3.282845e-03  -1.059736e-03   1.004600e+00   5.354943e-04  -7.099590e-04  -1.003085e-06   1.002810e+00   9.999980e-01  -1.131538e-04   2.001190e-03   1.126168e-04   1.000000e+00   2.684673e-04  -2.001220e-03  -2.682414e-04   9.999980e-01   9.925570e-01   1.004600e+00   1.002815e+00  -1.171857e-03   1.276054e-03   2.661276e-04  -7.413840e-03   4.611219e-03   2.819867e-03  -1.170021e-03   1.272946e-03   2.663665e-04   5.748210e-06   7.758887e-03  -7.526091e-03   4.566087e-03   2.795327e-03  -1.177956e-03   1.306450e-03   2.674634e-04  -5.489206e-05   7.815705e-03  -7.695025e-02  -5.333231e-02  -3.177644e-04  -1.034770e-01   7.053010e-02   4.223683e-02  -1.937883e-02  -7.530760e-02   1.009023e-01  -7.695025e-02   7.053010e-02   1.009023e-01  -7.840464e-02  -9.848299e-03  -1.653539e-02   2.507233e-02   9.530535e-03   5.877222e-02   1.144656e+05   1.809373e+07   1.808599e+07   1.808603e+07   1.732061e+00   1.732061e+00   2.060577e-01   1.846957e-01   9.136330e-02  -6.510847e+04   2.391681e+04  -7.932501e+04  -6.425231e+04  -5.174810e+04   2.287433e-01   6.039480e-01   7.634941e-01   2.327277e-01   7.276201e-01  -6.452959e-01   9.452589e-01  -3.252933e-01  -2.588276e-02  -9.959323e+06  -3.898949e+06   1.675998e+07   2.373136e-01  -9.025774e-01   3.592161e-01  -4.702967e-01  -4.303027e-01  -7.704937e-01   8.500019e-01   1.391045e-02  -5.265959e-01  -1.119897e-01   9.193311e-02   1.145387e-01   9.139176e-01   3.992290e-01   7.328571e-02   3.177357e-01  -5.912978e-01  -7.412226e-01   2.525839e-01  -7.007019e-01   6.672467e-01
   1.493560e-02   1.497765e-02   4.578312e-03   1.531432e+03   7.304070e-01   3.584648e-01   3.211568e-01   3.203784e-01  -9.351620e-03  -1.348086e-02   2.552820e-02  -5.257601e+04  -4.347491e+04  -3.613522e+04   8.287459e+03   1.831817e+04  -5.340394e+03   8.283211e+06  -1.272294e+07  -1.848700e+06   2.225362e+06   1.099393e+06  -5.813127e+06   8.278597e+06   2.193797e+05   1.452727e+04   4.235559e+06  -1.272280e+07  -6.355429e+06   2.189629e+06  -5.274777e+06  -1.846273e+06   8.277038e+06   2.196237e+05   1.507236e+04   4.235807e+06  -1.272409e+07  -6.355593e+06   2.190170e+06  -5.274930e+06  -1.847345e+06   9.896142e-01   1.974640e-02   2.586544e-02  -1.178788e-02   9.944579e-01  -1.710032e-02   1.420422e-02   7.334475e-03   1.014740e+00   9.998581e-01   1.581878e-02   5.784181e-03  -1.574815e-02   9.998033e-01  -1.205954e-02  -5.973810e-03   1.196674e-02   9.999106e-01   9.895746e-01   9.946623e-01   1.015005e+00   4.038911e-03   2.006921e-02  -4.544666e-03  -1.016150e-02  -5.304926e-03   1.532939e-02   3.961474e-03   2.010599e-02  -4.526105e-03  -4.568082e-05   2.883564e-02  -1.085925e-02  -5.452815e-03   1.369999e-02   4.095439e-03   2.010308e-02  -5.179273e-03  -8.706920e-04   2.861858e-02  -5.576768e-02  -1.058426e-02  -2.934558e-02   3.440647e-03   1.725508e-02  -1.214228e-01   8.656037e-02   6.293804e-02   6.816742e-02  -5.576768e-02   1.725508e-02   6.816742e-02  -3.571807e-03   2.860739e-02  -2.924237e-02  -7.012454e-03  -5.795297e-02  -9.218042e-02   8.261755e+04   1.802287e+07   1.802251e+07   1.802305e+07   1.731972e+00   1.731972e+00   1.877152e-01   1.068975e-01   1.543046e-01  -4.406205e+04   3.862477e+04  -6.825678e+04  -3.959699e+04  -2.433237e+04  -7.818383e-01   3.679530e-01   5.033284e-01   3.021872e-01   9.297628e-01  -2.102951e-01  -5.453547e-01  -1.231732e-02  -8.381149e-01  -1.579526e+07   2.680439e+05   9.238780e+06   1.934310e-01  -9.072984e-01  -3.733550e-01  -4.591009e-02  -3.884955e-01   9.203062e-01  -9.800391e-01  -1.608749e-01  -1.168012e-01  -6.215845e-02   4.988605e-03   8.682467e-02   9.742143e-01  -3.807263e-02  -2.223892e-01  -1.207608e-01  -9.205815e-01  -3.714115e-01  -1.905868e-01   3.886903e-01  -9.014414e-01
   1.493560e-02   1.497765e-02   1.371737e-02   1.421140e+03   8.646997e-01   3.827468e-01   3.182498e-01   2.990035e-01  -2.366975e-02   7.733921e-03   1.915776e-02  -1.150596e+04  -1.256833e+04  -1.322879e+04   2.709264e+03   6.806382e+02  -1.208276e+03   1.069683e+07  -8.461855e+06   3.039614e+06   4.730962e+06  -3.636280e+06   2.650765e+06   1.069785e+07   3.817744e+06  -4.804492e+06   5.645163e+06  -8.461447e+06   4.204205e+06  -2.469707e+06   1.102891e+06   3.043331e+06   1.069561e+07   3.818269e+06  -4.804382e+06   5.645689e+06  -8.463887e+06   4.203964e+06  -2.469552e+06   1.102662e+06   3.040763e+06   1.003301e+00  -2.067092e-02  -2.849483e-03   4.110904e-03   9.891106e-01   1.102378e-02   8.913145e-04   1.659000e-02   1.004574e+00   9.999212e-01  -1.242581e-02  -1.771653e-03   1.242081e-02   9.999189e-01  -2.804135e-03   1.806353e-03   2.781908e-03   9.999945e-01   1.003275e+00   9.893334e-01   1.004543e+00  -8.353773e-03  -8.977186e-04   1.385293e-02   3.315193e-03  -1.047889e-02   4.649551e-03  -8.329115e-03  -9.590896e-04   1.381426e-02  -8.380502e-04   2.101689e-02   3.362930e-03  -1.152667e-02   4.297694e-03  -8.274408e-03  -9.117706e-04   1.390993e-02  -1.288682e-03   2.134211e-02   4.175613e-02  -1.614293e-03  -3.238516e-02   6.997977e-02   1.829093e-02   1.355338e-01  -7.798847e-03   6.621075e-02   1.340439e-01   4.175613e-02   1.829093e-02   1.340439e-01   3.418274e-02  -2.009200e-02   1.008723e-01  -3.579703e-02  -1.229315e-02   3.466150e-02   2.199786e+04   1.702149e+07   1.702408e+07   1.702359e+07   1.730599e+00   1.730599e+00   2.209266e-01   2.086639e-01   7.258056e-02  -1.243436e+04   5.510036e+03  -1.563249e+04  -1.240027e+04  -9.270322e+03  -5.391735e-01   6.720159e-01   5.076284e-01  -3.512252e-01   3.684095e-01  -8.607643e-01  -7.654625e-01  -6.423932e-01   3.739229e-02  -1.022522e+07   2.804031e+06   1.269578e+07   2.725268e-01  -9.533540e-01   1.297896e-01   1.731569e-01   1.812911e-01   9.680652e-01   9.464385e-01   2.413497e-01  -2.144865e-01  -5.618116e-02   5.780766e-02   1.924645e-01  -3.752604e-01   8.019169e-01  -4.648751e-01  -9.269177e-01  -3.256127e-01   1.865472e-01   1.773890e-03  -5.009048e-01  -8.655006e-01
