     VARIABLES=
              x              y              z      nomin_den    nomin_voidr      fabric_xx      fabric_yy      fabric_zz      fabric_xy      fabric_xz      fabric_yz       sigma_xx       sigma_yy       sigma_zz       sigma_xy       sigma_xz       sigma_yz    sigmaDot_xx    sigmaDot_yy    sigmaDot_zz    sigmaDot_xy    sigmaDot_xz    sigmaDot_yz       Oldro_xx       Oldro_xy       Oldro_xz       Oldro_yx       Oldro_yy       Oldro_yz       Oldro_zx       Oldro_zy       Oldro_zz       Trues_xx       Trues_xy       Trues_xz       Trues_yx       Trues_yy       Trues_yz       Trues_zx       Trues_zy       Trues_zz           F_xX           F_xY           F_xZ           F_yX           F_yY           F_yZ           F_zX           F_zY           F_zZ           R_xX           R_xY           R_xZ           R_yX           R_yY           R_yZ           R_zX           R_zY           R_zZ           U_xX           U_yY           U_zZ           U_xY           U_xZ           U_yZ       Green_xx       Green_yy       Green_zz       Green_xy       Green_xz       Green_yz      Green_vol      Green_shr       Euler_xx       Euler_yy       Euler_zz       Euler_xy       Euler_xz       Euler_yz      Euler_vol      Euler_shr           l_xx           l_xy           l_xz           l_yx           l_yy           l_yz           l_zx           l_zy           l_zz           d_xx           d_yy           d_zz           d_xy           d_xz           d_yz           w_xy           w_xz           w_yz     norm_sigma  norm_sigmaDot     norm_Oldro     norm_Trues         norm_F         norm_U         norm_l         norm_d         norm_w              p              q        sigma_1        sigma_2        sigma_3     sigma_1_v1     sigma_1_v2     sigma_1_v3     sigma_2_v1     sigma_2_v2     sigma_2_v3     sigma_3_v1     sigma_3_v2     sigma_3_v3     sigmaDot_1     sigmaDot_2     sigmaDot_3  sigmaDot_1_v1  sigmaDot_1_v2  sigmaDot_1_v3  sigmaDot_2_v1  sigmaDot_2_v2  sigmaDot_2_v3  sigmaDot_3_v1  sigmaDot_3_v2  sigmaDot_3_v3            d_1            d_2            d_3         d_1_v1         d_1_v2         d_1_v3         d_2_v1         d_2_v2         d_2_v3         d_3_v1         d_3_v2         d_3_v3
ZONE I=2, J=2, K=2, DATAPACKING=POINT, STRANDID=5, SOLUTIONTIME=42
   5.104311e-03   5.103426e-03   4.872724e-03   1.588213e+03   6.685416e-01   3.252538e-01   3.303301e-01   2.777494e-01  -4.989787e-03  -3.716927e-02   1.635780e-02  -2.646280e+00  -2.917264e+00  -2.217026e+00   1.036991e-02   7.032664e-02   3.837240e-01   6.826356e+03  -1.695050e+03  -1.132712e+04  -9.385396e+04  -1.862710e+05  -9.390097e+04   6.826359e+03   8.953413e+04  -4.726766e+05  -2.772422e+05  -1.695170e+03   3.549661e+04   1.001348e+05  -2.232985e+05  -1.132716e+04   6.826425e+03   8.953413e+04  -4.726766e+05  -2.772422e+05  -1.695096e+03   3.549660e+04   1.001348e+05  -2.232985e+05  -1.132710e+04   1.036603e+00   2.597720e-03  -1.029630e-03   3.004387e-02   9.873626e-01   3.924063e-03  -1.484767e-03  -5.477175e-03   1.024086e+00   9.999080e-01  -1.356244e-02   1.469266e-04   1.356161e-02   9.998971e-01   4.681620e-03  -2.104057e-04  -4.679197e-03   9.999890e-01   1.036915e+00   9.872514e-01   1.024093e+00   1.598886e-02  -1.191793e-03  -8.542758e-04   3.772515e-02  -1.253913e-02   2.438416e-02   1.618257e-02  -1.234977e-03  -8.686490e-04   1.652339e-02   3.544241e-02   3.418299e-02  -1.295514e-02   2.325371e-02   1.608773e-02  -1.136244e-03  -6.613547e-04   1.482718e-02   3.404505e-02   1.249370e-03  -1.730219e-02   2.917078e-02  -1.301966e-02  -2.159690e-02  -7.917559e-03   1.493042e-02   1.671275e-02  -4.706140e-03   1.249370e-03  -2.159690e-02  -4.706140e-03  -1.516093e-02   2.205060e-02   4.397597e-03  -2.141264e-03   7.120176e-03  -1.231516e-02   4.563755e+00   6.079719e+05   6.079719e+05   6.079719e+05   1.760438e+00   1.760438e+00   4.873262e-02   4.428293e-02   2.034429e-02  -2.593523e+00   1.171663e+00  -3.207193e+00  -2.705204e+00  -1.868173e+00  -4.707193e-02   8.825565e-01  -4.678442e-01  -9.623194e-01   8.550753e-02   2.581275e-01   2.678163e-01   4.623661e-01   8.452763e-01  -3.118325e+05  -1.018739e+05   4.075105e+05   5.356587e-01   7.534179e-01   3.813545e-01  -6.175818e-01   4.153572e-02   7.854092e-01   5.759015e-01  -6.562288e-01   4.875461e-01  -3.672231e-02  -1.066373e-02   2.233237e-02  -5.496498e-01  -6.884997e-01   4.731313e-01  -3.134407e-01   6.949461e-01   6.471514e-01   7.743643e-01  -2.074080e-01   5.977808e-01
   5.104311e-03   5.103426e-03   1.420530e-02   1.488204e+03   7.806698e-01   3.652094e-01   3.537501e-01   2.547247e-01  -4.130858e-02   1.686641e-02  -1.639165e-02  -3.403444e+00  -1.184862e+00  -2.407015e+00   4.804074e-01  -9.520900e-01   2.376546e-01  -9.112200e+03   3.647327e+03   3.522481e+04   2.473902e+03  -9.668445e+02  -1.524260e+04  -9.112095e+03  -1.907970e+03   1.526203e+04   6.855707e+03   3.647229e+03  -2.326571e+04  -1.719577e+04  -7.219497e+03   3.522483e+04  -9.112016e+03  -1.907976e+03   1.526205e+04   6.855690e+03   3.647256e+03  -2.326572e+04  -1.719575e+04  -7.219502e+03   3.522488e+04   6.326339e-01  -6.907293e-01  -1.049753e+00  -9.820602e-02   4.086012e-01  -5.685857e-01   3.641370e-01   8.833019e-01   2.179553e+00   8.698895e-01  -3.166776e-01  -3.781635e-01   9.035945e-02   8.560196e-01  -5.089849e-01   4.848994e-01   4.085900e-01   7.732573e-01   7.180175e-01   9.294174e-01   2.371735e+00  -1.356245e-01   9.231790e-02   7.362564e-01  -2.287671e-01   2.121421e-01   2.587862e+00  -7.773148e-02   9.269253e-02   1.208987e+00   8.570790e-01   2.242496e+00  -2.903535e-01  -1.120975e+00   1.333551e-01  -3.994715e-01  -4.367837e-01  -4.498163e-01  -4.259910e-01   1.131268e+00   1.926834e-02  -3.487449e-02  -3.159248e-02   3.096876e-03  -4.481527e-02  -2.320568e-02   1.143049e-02   3.662997e-02   2.276281e-03   1.926834e-02  -4.481527e-02   2.276281e-03  -1.588881e-02  -1.008100e-02   6.712148e-03  -1.898568e-02  -2.151149e-02  -2.991782e-02   4.615686e+00   5.009792e+04   5.009791e+04   5.009794e+04   2.853502e+00   2.853502e+00   8.136141e-02   5.641920e-02   5.862212e-02  -2.331774e+00   2.931945e+00  -4.223037e+00  -1.813666e+00  -9.586188e-01  -8.342365e-01   2.342678e-01  -4.991674e-01  -4.497464e-01   2.346704e-01   8.617761e-01  -3.190262e-01  -9.434238e-01   9.040949e-02  -1.594698e+04   2.507868e+03   4.319905e+04   9.331909e-01  -2.225350e-01   2.821929e-01   1.405831e-01   9.486916e-01   2.832326e-01   3.307432e-01   2.246385e-01  -9.165951e-01  -4.890160e-02  -2.404352e-03   2.803531e-02  -2.141622e-01  -9.730548e-01   8.543378e-02   4.148318e-01  -1.141905e-02   9.098265e-01  -8.843354e-01   2.302911e-01   4.060996e-01
   5.104311e-03   1.489452e-02   4.872724e-03   1.564640e+03   6.936799e-01   2.939750e-01   2.640681e-01   3.419569e-01   5.850721e-02  -1.884596e-02   1.401730e-02  -1.208922e+00  -1.391540e+00  -6.422234e-01  -6.023547e-01   1.104884e-01  -4.048252e-02  -3.458890e+04  -1.222655e+02   5.799828e+03   3.325270e+04  -6.134528e+04   8.490919e+04  -3.458894e+04  -3.680384e+04  -1.352808e+05   1.033092e+05  -1.223019e+02   3.134424e+04   1.259019e+04   1.384741e+05   5.799816e+03  -3.458888e+04  -3.680380e+04  -1.352808e+05   1.033093e+05  -1.222290e+02   3.134424e+04   1.259019e+04   1.384741e+05   5.799850e+03   1.014158e+00   1.222927e-02  -4.551220e-03   4.767866e-02   1.009848e+00   4.678523e-02   4.514339e-02  -8.853167e-03   1.041265e+00   9.995577e-01  -1.666495e-02  -2.463049e-02   1.733110e-02   9.994829e-01   2.708446e-02   2.416639e-02  -2.749936e-02   9.993297e-01   1.015627e+00   1.009366e+00   1.041947e+00   2.951169e-02   2.142526e-02   1.820276e-02   1.641403e-02   1.001087e-02   4.322160e-02   3.007548e-02   2.231062e-02   1.898592e-02   2.321550e-02   5.257625e-02   1.160000e-02   9.447528e-03   3.840079e-02   2.813501e-02   1.731774e-02   1.787279e-02   1.981610e-02   4.720340e-02  -1.938832e-02   6.302659e-03   1.513928e-03   1.523682e-02  -1.947150e-02  -6.960007e-03  -2.306697e-02   1.030668e-02  -1.352497e-02  -1.938832e-02  -1.947150e-02  -1.352497e-02   1.076974e-02  -1.077652e-02   1.673336e-03  -4.467083e-03   1.229045e-02  -8.633343e-03   2.141072e+00   2.277593e+05   2.277593e+05   2.277593e+05   1.771805e+00   1.771805e+00   4.357639e-02   3.752083e-02   2.216053e-02  -1.080895e+00   1.118698e+00  -1.812174e+00  -8.420830e-01  -5.884282e-01  -6.432965e-01  -7.645185e-01   4.100088e-02  -6.706021e-01   5.884922e-01   4.516302e-01   3.694083e-01  -2.630368e-01   8.912627e-01  -1.720052e+05  -3.194005e+04   1.750339e+05  -4.839965e-01   7.066812e-01  -5.160902e-01  -7.874135e-01  -9.442590e-02   6.091500e-01   3.817425e-01   7.012029e-01   6.021521e-01  -3.424706e-02  -1.500447e-02  -3.133257e-03  -7.118451e-01   5.659563e-01  -4.158968e-01  -2.029517e-01  -7.326560e-01  -6.496351e-01  -6.723743e-01  -3.780326e-01   6.363993e-01
   5.104311e-03   1.489452e-02   1.420530e-02   1.617748e+03   6.380796e-01   3.189174e-01   2.748549e-01   3.662278e-01   7.292955e-02   1.156427e-02   3.916729e-02  -4.848485e+00  -4.662022e+00  -1.383549e+00  -2.560795e+00  -8.043815e-01  -7.473835e-01  -2.406199e+04   2.396251e+05  -2.299516e+04   9.430574e+04  -2.304488e+05   5.235223e+04  -2.406211e+04  -4.657514e+04  -2.352585e+05   2.351866e+05   2.396251e+05  -4.042860e+04  -2.256389e+05   1.451334e+05  -2.299517e+04  -2.406186e+04  -4.657498e+04  -2.352584e+05   2.351867e+05   2.396254e+05  -4.042856e+04  -2.256388e+05   1.451334e+05  -2.299510e+04   9.386765e-01   5.795941e-02  -1.113171e-01  -2.533314e-03   9.056872e-01   1.598211e-01   2.521919e-01   1.177419e-02   1.205180e+00   9.846375e-01   4.889452e-02  -1.676258e-01  -3.651659e-02   9.964277e-01   7.614732e-02   1.707502e-01  -6.885638e-02   9.829055e-01   9.674104e-01   9.044750e-01   1.215408e+00   2.600685e-02   9.034155e-02   7.082308e-02  -2.763962e-02  -8.811637e-02   2.451967e-01   2.754005e-02   9.952053e-02   7.624306e-02   4.314691e-02   2.530039e-01  -6.216799e-02  -1.109851e-01   1.569389e-01   1.271968e-02   3.658321e-02   8.079123e-02  -5.404718e-03   1.945584e-01  -1.628763e-02   3.981969e-03   7.097568e-03  -3.724277e-03  -3.265914e-03   2.406266e-02   2.988808e-02   1.759757e-02  -3.165709e-02  -1.628763e-02  -3.265914e-03  -3.165709e-02   1.288464e-04   1.849283e-02   2.083012e-02   3.853123e-03  -1.139526e-02   3.232545e-03   7.953702e+00   4.949421e+05   4.949420e+05   4.949421e+05   1.805237e+00   1.805237e+00   5.603758e-02   5.319694e-02   1.761521e-02  -3.631352e+00   5.193939e+00  -6.981197e+00  -2.715535e+00  -1.197324e+00   7.159768e-01   6.762338e-01   1.734504e-01   6.723020e-01  -7.348221e-01   8.970260e-02  -1.881151e-01  -5.238608e-02   9.807489e-01  -3.693756e+05   1.840748e+05   3.778688e+05  -6.775971e-01   4.075660e-01  -6.121700e-01  -5.510306e-01   2.699169e-01   7.896266e-01  -4.870599e-01  -8.723731e-01  -4.168642e-02  -5.068757e-02  -1.167531e-02   1.115224e-02  -4.407063e-01  -3.600007e-01   8.223001e-01  -8.221334e-01   5.296456e-01  -2.087395e-01   3.603813e-01   7.680332e-01   5.293867e-01
   1.489481e-02   5.103426e-03   4.872724e-03   1.672833e+03   5.841391e-01   3.507446e-01   3.480566e-01   1.583417e-01  -6.439997e-02   9.657547e-03   3.940042e-03  -4.746182e-01  -5.061851e-01  -3.670693e-01  -4.557349e-02  -1.228721e-01   1.690667e-02   5.260449e+02  -3.223783e+03  -4.419609e+02   1.678709e+03  -2.466179e+03   4.602162e+03   5.260308e+02   2.872008e+03  -2.494061e+03   4.854283e+02  -3.223750e+03   8.460654e+03  -2.438340e+03   7.436655e+02  -4.419964e+02   5.260413e+02   2.872010e+03  -2.494058e+03   4.854282e+02  -3.223739e+03   8.460655e+03  -2.438338e+03   7.436644e+02  -4.419883e+02   1.079145e+00  -7.342726e-03   2.761418e-02   2.465188e-02   1.061967e+00   3.671165e-02   7.419797e-02   9.996894e-03   9.809542e-01   9.996435e-01  -1.424267e-02  -2.258526e-02   1.453082e-02   9.998145e-01   1.264593e-02   2.240095e-02  -1.296961e-02   9.996649e-01   1.080780e+00   1.061745e+00   9.804661e-01   8.315087e-03   5.011209e-02   2.358895e-02   8.533301e-02   6.396422e-02  -1.780925e-02   9.498688e-03   5.174475e-02   2.429515e-02   4.382932e-02   9.180879e-02   6.647506e-02   5.639259e-02  -2.295201e-02   5.559935e-03   4.768653e-02   2.159461e-02   3.330521e-02   8.302863e-02  -1.445046e-02  -6.712433e-03   6.332775e-04   1.534499e-02   3.257115e-02   3.608243e-02  -2.872645e-02  -3.140678e-02  -4.031215e-02  -1.445046e-02   3.257115e-02  -4.031215e-02   4.316280e-03  -1.404659e-02   2.337828e-03  -1.102871e-02   1.467986e-02   3.374461e-02   8.116337e-01   1.018087e+04   1.018088e+04   1.018087e+04   1.806371e+00   1.806371e+00   7.930465e-02   5.777170e-02   5.432917e-02  -4.492909e-01   2.480931e-01  -5.636817e-01  -4.955497e-01  -2.886412e-01  -6.778286e-01   5.177916e-01  -5.219580e-01  -5.367442e-01  -8.336720e-01  -1.299871e-01   5.024481e-01  -1.920490e-01  -8.430084e-01  -3.799944e+03  -1.869363e+03   2.529608e+03   3.362602e-01  -8.379984e-01   4.297532e-01  -5.410797e-01  -5.453991e-01  -6.401348e-01   7.708189e-01  -1.727883e-02  -6.368199e-01  -4.666359e-02  -8.508048e-03   3.298018e-02   4.047325e-01  -4.898938e-02   9.131219e-01   9.103697e-01  -7.246924e-02  -4.074006e-01  -8.613156e-02  -9.961668e-01  -1.526780e-02
   1.489481e-02   5.103426e-03   1.420530e-02   1.429897e+03   8.532802e-01   4.303605e-01   3.320910e-01   2.375485e-01   1.091304e-01   4.109899e-02   4.980706e-02  -3.613623e+00  -4.785369e+00  -1.254393e-01  -2.190814e+00  -7.834974e-02  -9.332462e-02  -3.826131e+04  -5.662558e+04  -2.302289e+03  -6.261198e+04   4.035136e+02  -1.778039e+03  -3.826141e+04  -6.703916e+04   4.563711e+03  -5.818449e+04  -5.662500e+04  -3.854179e+03  -3.756650e+03   2.982545e+02  -2.302289e+03  -3.826152e+04  -6.703921e+04   4.563711e+03  -5.818457e+04  -5.662515e+04  -3.854181e+03  -3.756655e+03   2.982513e+02  -2.302292e+03   1.191296e+00   1.330911e-01  -6.003582e-01  -1.343242e-01   7.523292e-01   3.467125e-01  -2.967981e-01  -9.318242e-03   1.556769e+00   9.866492e-01   1.222176e-01  -1.076391e-01  -1.072506e-01   9.849830e-01   1.352993e-01   1.225586e-01  -1.219486e-01   9.849406e-01   1.153423e+00   7.584339e-01   1.644857e+00   4.948443e-02  -4.387326e-01   7.828588e-02   2.626596e-01  -2.081003e-01   9.520845e-01   3.013029e-02  -6.119113e-01   8.321665e-02   3.355479e-01   9.816720e-01   5.916192e-02  -3.724185e-01   1.347463e-01   1.991408e-02  -2.308529e-01   2.091136e-01  -5.950341e-02   4.792818e-01  -3.095649e-02   2.834398e-02  -2.197978e-02  -1.652520e-02   6.798800e-02  -1.495455e-02  -5.207395e-03   1.782444e-02  -6.616130e-03  -3.095649e-02   6.798800e-02  -6.616130e-03   5.909390e-03  -1.359359e-02   1.434946e-03   2.243459e-02  -8.386192e-03  -1.638949e-02   6.794889e+00   1.122733e+05   1.122729e+05   1.122730e+05   2.239037e+00   2.239037e+00   8.804820e-02   7.789722e-02   4.104277e-02  -2.841477e+00   6.315142e+00  -6.983531e+00  -1.423297e+00  -1.176018e-01   6.281559e-01   7.776099e-01   2.725739e-02   7.762984e-01  -6.287011e-01   4.577893e-02  -5.273490e-02   7.596439e-03   9.985797e-01  -1.063953e+05  -2.902391e+03   1.210850e+04   6.499324e-01   7.596940e-01   2.127964e-02  -1.442557e-01   1.508074e-01  -9.779813e-01  -7.461757e-01   6.325520e-01   2.076048e-01  -3.737141e-02  -5.582335e-04   6.834502e-02   9.121906e-01  -5.669003e-02   4.058258e-01   4.056068e-01  -1.583570e-02  -9.139105e-01  -5.823614e-02  -9.982662e-01  -8.548690e-03
   1.489481e-02   1.489452e-02   4.872724e-03   1.570852e+03   6.869823e-01   2.904830e-01   3.291302e-01   3.072160e-01  -3.490351e-02  -3.030610e-02  -1.641480e-02  -1.219169e+00  -1.341959e+00  -8.467909e-01   2.895453e-01  -4.071163e-03  -1.303952e-01  -9.259672e+03   6.970047e+03  -5.680936e+03  -5.319203e+03  -2.984228e+04  -2.067193e+04  -9.259709e+03   8.977318e+03  -4.439872e+04  -1.961566e+04   6.970091e+03  -1.364394e+04  -1.528587e+04  -2.769986e+04  -5.680986e+03  -9.259677e+03   8.977307e+03  -4.439873e+04  -1.961567e+04   6.970127e+03  -1.364394e+04  -1.528587e+04  -2.769985e+04  -5.680964e+03   1.108762e+00  -3.172968e-02   1.193898e-02  -2.098285e-01   9.077919e-01  -5.963048e-01   3.506325e-02  -1.917248e-01   1.480075e+00   9.964326e-01   8.369769e-02  -1.080567e-02  -8.432962e-02   9.825609e-01  -1.657183e-01  -3.253008e-03   1.660383e-01   9.861139e-01   1.122388e+00   8.574715e-01   1.558213e+00  -1.075465e-01   5.736785e-02  -3.391573e-01   1.373058e-01  -6.907436e-02   7.731725e-01  -1.161919e-01   9.512774e-02  -4.127333e-01   2.804680e-01   7.170450e-01   6.489741e-02  -2.469705e-01   1.089391e-01  -1.450921e-01  -5.704192e-02  -3.525399e-01  -2.437802e-02   4.983109e-01  -9.673824e-03   2.359286e-02   1.627787e-02  -1.143319e-03   1.736900e-02  -1.415344e-02  -1.646298e-02   3.110154e-02  -3.429510e-02  -9.673824e-03   1.736900e-02  -3.429510e-02   1.122477e-02  -9.255483e-05   8.474049e-03   1.236809e-02   1.637042e-02  -2.262749e-02   2.067807e+00   6.156548e+04   6.156548e+04   6.156547e+04   2.163980e+00   2.163980e+00   6.191102e-02   4.435140e-02   4.319638e-02  -1.135973e+00   6.715055e-01  -1.478335e+00  -1.214588e+00  -7.149965e-01   4.444307e-01  -8.684828e-01  -2.195880e-01  -8.410566e-01  -3.201475e-01  -4.360383e-01   3.083913e-01   3.784747e-01  -8.727266e-01  -4.455333e+04   6.377500e+03   3.020526e+04   5.696521e-01   5.467714e-01   6.136265e-01   7.988382e-01  -1.927723e-01  -5.698214e-01   1.932719e-01  -8.147882e-01   5.465950e-01  -3.579491e-02  -1.333986e-02   2.253484e-02  -7.778938e-02   1.729271e-01  -9.818579e-01  -9.423222e-01   3.088289e-01   1.290488e-01   3.255422e-01   9.352652e-01   1.389294e-01
   1.489481e-02   1.489452e-02   1.420530e-02   1.424924e+03   8.597483e-01   4.899382e-01   2.518717e-01   1.915234e-01   7.228120e-02   4.339257e-04  -2.914697e-02  -6.139210e-01  -6.597700e-01  -1.648765e-01  -1.827328e-01   9.634163e-02   4.834771e-02   8.744384e+03   8.613853e+03   3.814315e+02   2.058469e+04  -1.461449e+02  -7.699296e+03   8.744388e+03   1.579848e+04  -4.312563e+03   2.537091e+04   8.613802e+03  -3.627358e+03   4.020237e+03  -1.177124e+04   3.814423e+02   8.744402e+03   1.579848e+04  -4.312566e+03   2.537091e+04   8.613818e+03  -3.627359e+03   4.020235e+03  -1.177124e+04   3.814463e+02   7.752702e-01   3.217327e-01   5.121344e-01   7.071992e-01   3.960695e-01  -7.900282e-01   1.089268e-01  -1.577153e-01   2.065930e+00   3.993316e-01   8.683069e-01   2.942403e-01   8.792505e-01  -2.717964e-01  -3.912102e-01   2.597171e-01  -4.149335e-01   8.719961e-01   9.596852e-01   2.371539e-01   2.261240e+00   4.357610e-01   4.643596e-02  -1.978068e-01   5.651982e-02  -3.573715e-01   2.077246e+00   2.561752e-01   3.168516e-02  -2.369821e-01   5.921314e-01   1.557687e+00  -9.429082e+02  -9.662187e+02  -3.787357e+02   9.546255e+02   5.979679e+02  -6.053568e+02  -7.626209e+02   1.525776e+03  -2.346689e-03   5.760213e-03  -2.383086e-02   2.458131e-02  -4.057620e-02   7.345863e-02  -1.563837e-02  -1.662446e-02   1.883552e-02  -2.346689e-03  -4.057620e-02   1.883552e-02   1.517076e-02  -1.973462e-02   2.841709e-02  -9.410548e-03  -4.096243e-03   4.504154e-02   9.652511e-01   3.507938e+04   3.507937e+04   3.507939e+04   2.559842e+00   2.559842e+00   9.554655e-02   6.972078e-02   6.533113e-02  -4.795225e-01   6.042931e-01  -8.469913e-01  -4.387861e-01  -1.527902e-01   6.689585e-01   7.357869e-01  -1.054140e-01   7.253507e-01  -6.771843e-01  -1.236442e-01   1.623604e-01  -6.250730e-03   9.867117e-01  -2.232214e+04   5.083162e+03   3.497865e+04  -5.991882e-01   6.624636e-01   4.495726e-01  -4.351842e-01   2.018368e-01  -8.774261e-01   6.720032e-01   7.213903e-01  -1.673554e-01  -6.017211e-02   8.777153e-04   3.520702e-02  -3.566572e-01   8.471833e-01  -3.937971e-01  -8.605269e-01  -4.620117e-01  -2.145663e-01   3.637158e-01  -2.623464e-01  -8.938038e-01
