VARIABLES=
 x y z nomin_den nomin_voidr fabric_xx fabric_yy fabric_zz fabric_xy fabric_xz fabric_yz sigma_xx sigma_yy sigma_zz sigma_xy sigma_xz sigma_yz sigmaDot_xx sigmaDot_yy sigmaDot_zz sigmaDot_xy sigmaDot_xz sigmaDot_yz Oldro_xx Oldro_xy Oldro_xz Oldro_yx Oldro_yy Oldro_yz Oldro_zx Oldro_zy Oldro_zz Trues_xx Trues_xy Trues_xz Trues_yx Trues_yy Trues_yz Trues_zx Trues_zy Trues_zz F_xX F_xY F_xZ F_yX F_yY F_yZ F_zX F_zY F_zZ R_xX R_xY R_xZ R_yX R_yY R_yZ R_zX R_zY R_zZ U_xX U_yY U_zZ U_xY U_xZ U_yZ Green_xx Green_yy Green_zz Green_xy Green_xz Green_yz Green_vol Green_shr Euler_xx Euler_yy Euler_zz Euler_xy Euler_xz Euler_yz Euler_vol Euler_shr l_xx l_xy l_xz l_yx l_yy l_yz l_zx l_zy l_zz d_xx d_yy d_zz d_xy d_xz d_yz w_xy w_xz w_yz norm_sigma norm_sigmaDot norm_Oldro norm_Trues norm_F norm_U norm_l norm_d norm_w p q sigma_1 sigma_2 sigma_3 sigma_1_v1 sigma_1_v2 sigma_1_v3 sigma_2_v1 sigma_2_v2 sigma_2_v3 sigma_3_v1 sigma_3_v2 sigma_3_v3 sigmaDot_1 sigmaDot_2 sigmaDot_3 sigmaDot_1_v1 sigmaDot_1_v2 sigmaDot_1_v3 sigmaDot_2_v1 sigmaDot_2_v2 sigmaDot_2_v3 sigmaDot_3_v1 sigmaDot_3_v2 sigmaDot_3_v3 d_1 d_2 d_3 d_1_v1 d_1_v2 d_1_v3 d_2_v1 d_2_v2 d_2_v3 d_3_v1 d_3_v2 d_3_v3
ZONE T="stress" N=27, E=8, DATAPACKING=BLOCK, VARLOCATION=([4,5,6,7,8,9,10,11,12,13,14,15,16,17,18,19,20,21,22,23,24,25,26,27,28,29,30,31,32,33,34,35,36,37,38,39,40,41,42,43,44,45,46,47,48,49,50,51,52,53,54,55,56,57,58,59,60,61,62,63,64,65,66,67,68,69,70,71,72,73,74,75,76,77,78,79,80,81,82,83,84,85,86,87,88,89,90,91,92,93,94,95,96,97,98,99,100,101,102,103,104,105,106,107,108,109,110,111,112,113,114,115,116,117,118,119,120,121,122,123,124,125,126,127,128,129,130,131,132,133,134,135,136,137,138,139,140,141,142,143,144,145,146]=CELLCENTERED), ZONETYPE=FEBRICK, STRANDID=4, SOLUTIONTIME=47
   2.340536e-04   2.340536e-04   2.340536e-04   2.340536e-04   2.340536e-04   2.340536e-04   2.340536e-04   2.340536e-04   2.340536e-04   9.999568e-03   9.999568e-03   9.999568e-03   9.999568e-03   9.999568e-03   9.999568e-03   9.999568e-03   9.999568e-03   9.999568e-03   1.976508e-02   1.976508e-02   1.976508e-02   1.976508e-02   1.976508e-02   1.976508e-02   1.976508e-02   1.976508e-02   1.976508e-02
   2.328671e-04   2.328671e-04   2.328671e-04   9.998975e-03   9.998975e-03   9.998975e-03   1.976508e-02   1.976508e-02   1.976508e-02   2.328671e-04   2.328671e-04   2.328671e-04   9.998975e-03   9.998975e-03   9.998975e-03   1.976508e-02   1.976508e-02   1.976508e-02   2.328671e-04   2.328671e-04   2.328671e-04   9.998975e-03   9.998975e-03   9.998975e-03   1.976508e-02   1.976508e-02   1.976508e-02
   2.314366e-04   9.539018e-03   1.884660e-02   2.314366e-04   9.539018e-03   1.884660e-02   2.314366e-04   9.539018e-03   1.884660e-02   2.314366e-04   9.539018e-03   1.884660e-02   2.314366e-04   9.539018e-03   1.884660e-02   2.314366e-04   9.539018e-03   1.884660e-02   2.314366e-04   9.539018e-03   1.884660e-02   2.314366e-04   9.539018e-03   1.884660e-02   2.314366e-04   9.539018e-03   1.884660e-02
   1.580380e+03   1.613393e+03   1.562625e+03   1.597889e+03   1.718182e+03   1.394565e+03   1.571136e+03   1.415813e+03
   6.768119e-01   6.425012e-01   6.958643e-01   6.584382e-01   5.423276e-01   9.002343e-01   6.866772e-01   8.717158e-01
   3.283405e-01   2.519107e-01   2.759424e-01   2.738157e-01   4.295779e-01   3.391664e-01   3.011871e-01   3.734068e-01
   3.247841e-01   3.441365e-01   3.560929e-01   3.703282e-01   3.543593e-01   2.998753e-01   3.591762e-01   3.073970e-01
   3.276446e-01   3.878237e-01   3.590362e-01   3.558560e-01   2.051933e-01   3.021348e-01   3.396367e-01   3.191962e-01
  -4.318257e-02  -4.427577e-02   7.399889e-03   6.883406e-02  -9.506226e-03   8.261649e-03  -4.936376e-02  -5.882714e-02
  -3.655764e-02   4.233745e-03  -1.349275e-02   3.230696e-02  -8.797690e-03  -3.404818e-02  -4.395157e-02  -7.750141e-02
  -3.506594e-03  -6.862004e-03   1.398742e-02   2.539918e-02  -1.923563e-02   1.013452e-02   1.265050e-02  -1.163684e-02
  -3.563844e+01  -5.223239e+00  -1.712411e+01  -1.190312e+01  -4.550122e+01  -3.603567e+00  -2.930555e+00  -1.991154e+00
  -3.259831e+01  -2.984938e+00  -2.231394e+01  -1.115465e+01  -2.400025e+01  -2.873445e+00  -4.274883e+00  -8.454300e-01
  -2.988981e+01  -6.348265e+00  -2.108631e+01  -1.333225e+01  -1.716571e+01  -1.957468e+00  -2.481201e+00  -2.984080e+00
   5.432200e+00   3.571452e-01  -3.728304e-01  -3.779380e+00  -1.115249e+01  -8.396381e-01   1.204119e+00   3.496927e-01
   1.102062e+01   4.923277e-02   5.175949e-01  -3.310083e+00  -4.792477e+00   3.186598e-01   2.152309e-02   1.147113e-01
   5.386148e+00   7.879798e-02  -1.643412e+00  -1.706038e+00   3.296381e+00  -2.949825e-01  -4.093160e-01   2.615688e-01
  -3.773882e+04  -2.794597e+04  -3.839837e+04  -3.064863e+04  -3.997315e+04  -3.401709e+04   6.372975e+03   1.026636e+04
  -3.373850e+04  -3.344521e+04  -2.003989e+04  -1.522510e+04  -2.668273e+04  -5.682240e+03  -1.327380e+04  -5.962236e+04
   2.073352e+04   6.043101e+04  -1.224003e+04  -8.113357e+04   3.037631e+04  -1.544615e+04   9.746232e+04  -7.767181e+03
   1.198779e+04  -1.272523e+05  -3.672218e+04  -1.491863e+05   2.085232e+05  -1.139470e+05  -2.724996e+05   3.422161e+05
  -1.332443e+04   4.091239e+04   8.501856e+03   1.111223e+05  -7.047532e+04   4.677773e+03   1.483231e+05   1.418008e+04
  -1.171452e+05   1.405764e+05   2.334853e+04  -1.622050e+05  -6.387498e+04   9.781698e+04  -8.295856e+04   2.987637e+05
  -3.773906e+04  -2.794559e+04  -3.839843e+04  -3.064816e+04  -3.997443e+04  -3.401743e+04   6.372835e+03   1.026615e+04
   6.501326e+03  -3.553648e+04  -2.611218e+04  -1.181062e+04  -4.320948e+04  -4.577206e+04   1.707570e+04   6.266205e+03
  -2.730881e+04   1.369773e+05   1.906084e+03   2.875857e+05  -4.117239e+04   1.424897e+04  -2.207085e+04   2.856906e+04
   1.747407e+04  -2.189681e+05  -4.733404e+04  -2.865617e+05   4.602534e+05  -1.821219e+05  -5.620747e+05   6.781662e+05
  -3.373981e+04  -3.344538e+04  -2.004086e+04  -1.522508e+04  -2.668399e+04  -5.682142e+03  -1.327397e+04  -5.962252e+04
   1.462762e+05   2.057246e+03  -7.802916e+04   3.754495e+03  -1.093019e+04   2.316211e+04  -1.607933e+05   1.023132e+05
   6.601475e+02  -5.515283e+04   1.509905e+04  -6.534132e+04  -9.978263e+04  -4.893562e+03   3.187172e+05  -2.088274e+02
  -3.805644e+05   2.790961e+05   1.247253e+05  -3.281640e+05  -1.168209e+05   1.724720e+05  -5.123821e+03   4.952147e+05
   2.073293e+04   6.043019e+04  -1.223995e+04  -8.113454e+04   3.037678e+04  -1.544631e+04   9.746248e+04  -7.767686e+03
  -3.773806e+04  -2.794529e+04  -3.839812e+04  -3.064791e+04  -3.997429e+04  -3.401710e+04   6.372864e+03   1.026658e+04
   6.501176e+03  -3.553647e+04  -2.611218e+04  -1.181055e+04  -4.320945e+04  -4.577201e+04   1.707569e+04   6.266143e+03
  -2.730913e+04   1.369773e+05   1.906082e+03   2.875857e+05  -4.117237e+04   1.424894e+04  -2.207085e+04   2.856903e+04
   1.747391e+04  -2.189682e+05  -4.733403e+04  -2.865616e+05   4.602535e+05  -1.821218e+05  -5.620747e+05   6.781661e+05
  -3.373890e+04  -3.344521e+04  -2.004045e+04  -1.522485e+04  -2.668392e+04  -5.681875e+03  -1.327392e+04  -5.962234e+04
   1.462760e+05   2.057239e+03  -7.802913e+04   3.754539e+03  -1.093020e+04   2.316212e+04  -1.607933e+05   1.023131e+05
   6.598414e+02  -5.515280e+04   1.509903e+04  -6.534126e+04  -9.978262e+04  -4.893586e+03   3.187172e+05  -2.088516e+02
  -3.805646e+05   2.790961e+05   1.247253e+05  -3.281639e+05  -1.168209e+05   1.724721e+05  -5.123815e+03   4.952146e+05
   2.073377e+04   6.043056e+04  -1.223957e+04  -8.113426e+04   3.037683e+04  -1.544613e+04   9.746250e+04  -7.767050e+03
   1.029303e+00   1.022646e+00   1.001771e+00   9.786180e-01   9.881849e-01   1.190315e+00   9.776253e-01   8.262513e-01
   3.048903e-04  -1.257458e-01   1.835936e-02   8.023321e-02  -2.887112e-02  -3.788396e-01   2.122633e-02   2.765973e-01
   3.588977e-02  -2.253906e-01  -6.409425e-04  -1.253648e-01   6.208344e-02  -6.277582e-01  -9.606935e-02   5.454649e-01
   1.706445e-02   2.086502e-01  -1.321065e-02   1.287897e-01   3.486257e-02  -2.998755e-01  -1.725659e-02   6.333323e-01
   9.886614e-01   7.353624e-01   1.001577e+00   9.264860e-01   1.017294e+00   1.128686e+00   8.678923e-01   5.329284e-01
   7.200724e-03  -2.449588e-01   1.058506e-02   1.602065e-01  -5.937115e-03   3.924752e-01   1.181839e-01  -3.080686e-01
   4.735043e-03  -3.597860e-01   3.063537e-02   2.742756e-01   1.928931e-02  -4.787424e-01   1.188478e-01   2.251979e-01
  -3.338021e-03   7.113177e-01   5.011352e-02  -2.247620e-02   7.577974e-02  -1.519851e-01  -1.633043e-01  -8.124760e-02
   1.049516e+00   7.779358e-01   1.017337e+00   1.250105e+00   7.706674e-01   1.927605e+00   1.004334e+00   7.434181e-01
   9.998537e-01   9.913081e-01   9.997512e-01   9.836207e-01   9.991385e-01   9.968042e-01   9.940711e-01   9.253516e-01
  -8.305213e-03  -6.898052e-02   1.569147e-02  -6.856173e-03  -3.251625e-02  -7.359512e-02   2.805906e-02  -2.472678e-01
   1.495029e-02   1.120265e-01  -1.585071e-02  -1.801204e-01   2.578724e-02  -3.106607e-02  -1.050493e-01   2.873725e-01
   8.229998e-03   1.171785e-01  -1.599657e-02   2.321616e-02   3.367847e-02   7.808875e-02  -1.215399e-02   3.289474e-01
   9.999532e-01   8.500729e-01   9.996856e-01   9.957719e-01   9.983738e-01   9.796761e-01   9.887494e-01   9.005096e-01
   5.085561e-03  -5.134639e-01  -1.930846e-02   8.887783e-02  -4.599497e-02   1.847616e-01   1.490866e-01  -2.843870e-01
  -1.499183e-02  -5.981167e-02   1.554275e-02   1.787495e-01  -2.424972e-02   1.683713e-02   1.080507e-01  -1.884620e-01
  -4.961776e-03   5.221281e-01   1.955722e-02  -9.160377e-02   4.682382e-02  -1.865971e-01  -1.469259e-01   3.576884e-01
   9.998753e-01   8.507672e-01   9.996879e-01   9.796210e-01   9.986088e-01   9.822922e-01   9.832283e-01   9.146262e-01
   1.029222e+00   1.059726e+00   1.002209e+00   1.014606e+00   9.880399e-01   1.155033e+00   9.848803e-01   9.304648e-01
   9.886292e-01   1.005185e+00   1.002530e+00   9.240776e-01   1.020126e+00   1.161987e+00   8.827172e-01   3.824522e-01
   1.049958e+00   7.623701e-01   1.016826e+00   1.261449e+00   7.714693e-01   1.985488e+00   1.015202e+00   9.243120e-01
   8.491570e-03  -8.102922e-02   3.111897e-03   9.641089e-02   3.577008e-03  -2.920503e-01  -7.093018e-03   4.465672e-01
   2.020962e-02  -2.986650e-01   1.500211e-02   1.038636e-01   4.314153e-02  -5.626488e-01   1.158286e-02   2.633024e-01
   1.694851e-03   2.134969e-01   3.046796e-02   4.587427e-02   2.813941e-02   7.101311e-02  -3.340411e-02  -1.463826e-01
   2.988945e-02   1.093931e-01   2.328699e-03   2.475358e-02  -1.095156e-02   3.679842e-01  -1.491313e-02   6.725756e-02
  -1.126867e-02   3.127132e-02   3.002215e-03  -6.734053e-02   2.073125e-02   2.202756e-01  -1.098221e-01  -3.164401e-01
   5.141200e-02  -1.420051e-01   1.754383e-02   3.020727e-01  -2.010911e-01   1.631889e+00   1.594208e-02  -2.744565e-02
   8.584490e-03  -1.155411e-01   3.347813e-03   9.583742e-02   4.198602e-03  -3.583210e-01  -6.816909e-03   2.738814e-01
   2.101692e-02  -2.807480e-01   1.519230e-02   1.204110e-01   3.800429e-02  -8.938748e-01   1.170181e-02   2.114987e-01
   1.813356e-03   2.007840e-01   3.078617e-02   5.513651e-02   2.528438e-02   1.939169e-01  -3.174022e-02  -3.685268e-02
   2.334426e-02  -4.468708e-04   7.624915e-03   8.649526e-02  -6.377046e-02   7.400495e-01  -3.626437e-02  -9.220939e-02
   4.521120e-02   4.457775e-01   4.104801e-02   2.914315e-01   1.483011e-01   1.445451e+00   8.553288e-02   4.633970e-01
   2.775873e-02  -2.939219e-01   1.469542e-03  -3.138453e-02  -1.323797e-02  -9.678306e-02  -1.810021e-02  -5.602349e+01
  -1.152312e-02  -5.611085e-01  -4.998336e-05  -9.229023e-02   1.323988e-02  -2.034501e-02  -1.520513e-01  -3.899489e+01
   4.537119e-02  -2.426622e-01   1.636382e-02   1.840514e-01  -3.465276e-01   2.931244e-01   2.308196e-02  -6.989370e+01
   8.672686e-03   4.130580e-01   1.666318e-03   1.010312e-01  -1.589933e-03  -3.081421e-01  -6.359908e-03   4.684901e+01
   1.820340e-02  -4.906232e-01   1.476506e-02   2.239500e-02   5.555059e-02  -2.024640e-01   7.863494e-03   6.269663e+01
   1.679505e-03   4.308599e-01   2.911105e-02   7.086192e-02   5.954158e-02  -3.821273e-02  -1.548734e-02  -5.210685e+01
   2.053560e-02  -3.658975e-01   5.927792e-03   2.012554e-02  -1.155086e-01   5.866545e-02  -4.902319e-02  -5.497070e+01
   4.095153e-02   9.137510e-01   3.916626e-02   2.215442e-01   2.498965e-01   4.900236e-01   1.078717e-01   1.100323e+02
  -2.533323e-03   3.647269e-02  -7.880387e-05   2.321790e-02  -2.631431e-02  -4.069615e-02  -2.983626e-02  -5.011868e-02
   4.725137e-03   1.378620e-02  -4.068632e-02   7.590098e-03   2.852290e-02  -3.113920e-02  -1.473367e-02   1.942983e-02
   7.918526e-04  -3.486121e-02   2.681447e-02  -2.122880e-02   4.988979e-02   2.565231e-03   1.635053e-02  -2.967074e-02
  -1.194354e-02  -1.646303e-02  -3.660339e-03  -2.857405e-03  -2.879637e-02   4.448899e-02   2.433127e-02  -4.729812e-03
  -2.280730e-02  -2.974123e-02  -2.143365e-02  -3.914361e-03  -1.201956e-02   3.189562e-03  -1.338452e-02  -7.581314e-02
  -3.977503e-03   3.189622e-02  -3.952150e-03   3.653811e-02   7.034451e-03   9.957703e-03   4.463731e-03   7.300270e-02
   5.422624e-03   1.844772e-02   1.279153e-02   2.592013e-02  -6.897143e-02  -3.736363e-02  -1.122876e-02   5.001799e-02
   2.872492e-02   1.270744e-02  -1.573870e-02  -1.666259e-02   1.251454e-02   4.761241e-02  -9.898225e-03  -5.150055e-02
  -2.761931e-03  -6.442983e-02   3.347014e-03  -4.044318e-02   3.530150e-02  -5.515131e-02   3.327858e-02  -8.710967e-02
  -2.533323e-03   3.647269e-02  -7.880387e-05   2.321790e-02  -2.631431e-02  -4.069615e-02  -2.983626e-02  -5.011868e-02
  -2.280730e-02  -2.974123e-02  -2.143365e-02  -3.914361e-03  -1.201956e-02   3.189562e-03  -1.338452e-02  -7.581314e-02
  -2.761931e-03  -6.442983e-02   3.347014e-03  -4.044318e-02   3.530150e-02  -5.515131e-02   3.327858e-02  -8.710967e-02
  -3.609199e-03  -1.338414e-03  -2.217333e-02   2.366346e-03  -1.367351e-04   6.674895e-03   4.798796e-03   7.350011e-03
   3.107238e-03  -8.206743e-03   1.980300e-02   2.345666e-03  -9.540823e-03  -1.739920e-02   2.560884e-03   1.017362e-02
   1.237371e-02   2.230183e-02  -9.845426e-03   9.937760e-03   9.774493e-03   2.878506e-02  -2.717247e-03   1.075108e-02
   8.334337e-03   1.512462e-02  -1.851299e-02   5.223751e-03   2.865964e-02  -3.781409e-02  -1.953247e-02   1.207982e-02
  -2.315386e-03  -2.665447e-02   7.011469e-03  -2.357446e-02   5.943061e-02   1.996443e-02   1.378964e-02  -3.984436e-02
  -1.635121e-02   9.594392e-03   5.893277e-03   2.660035e-02  -2.740043e-03  -1.882736e-02   7.180978e-03   6.225163e-02
   5.988626e+01   8.805402e+00   3.525093e+01   2.237706e+01   5.711605e+01   5.203210e+00   6.027468e+00   3.754935e+00
   4.126896e+05   3.930200e+05   1.637823e+05   5.335653e+05   4.922920e+05   2.592326e+05   6.737090e+05   8.486405e+05
   4.126891e+05   3.930200e+05   1.637828e+05   5.335651e+05   4.922919e+05   2.592327e+05   6.737090e+05   8.486407e+05
   4.126891e+05   3.930201e+05   1.637827e+05   5.335650e+05   4.922919e+05   2.592326e+05   6.737090e+05   8.486406e+05
   1.772023e+00   1.731277e+00   1.745208e+00   1.875892e+00   1.617831e+00   2.727691e+00   1.668057e+00   1.564207e+00
   1.772023e+00   1.731277e+00   1.745208e+00   1.875892e+00   1.617831e+00   2.727691e+00   1.668057e+00   1.564207e+00
   3.962534e-02   9.778324e-02   5.731797e-02   7.064707e-02   1.057263e-01   1.068909e-01   5.913737e-02   1.661666e-01
   2.976237e-02   8.659693e-02   4.931638e-02   4.908937e-02   4.956089e-02   8.402231e-02   4.744209e-02   1.280384e-01
   2.616044e-02   4.541513e-02   2.921035e-02   5.080594e-02   9.339037e-02   6.607501e-02   3.530547e-02   1.059128e-01
  -3.270885e+01  -4.852147e+00  -2.017479e+01  -1.213001e+01  -2.888906e+01  -2.811494e+00  -3.228880e+00  -1.940221e+00
   2.389563e+01   3.336673e+00   5.795504e+00   9.314192e+00   3.216802e+01   2.575610e+00   2.681631e+00   2.164058e+00
  -4.412549e+01  -6.493429e+00  -2.337298e+01  -1.787134e+01  -4.976956e+01  -4.427028e+00  -4.983671e+00  -3.089988e+00
  -3.662233e+01  -5.331804e+00  -2.045309e+01  -1.130772e+01  -2.268326e+01  -2.507505e+00  -2.647420e+00  -2.120040e+00
  -1.737874e+01  -2.731209e+00  -1.669830e+01  -7.210958e+00  -1.421436e+01  -1.499948e+00  -2.055547e+00  -6.106356e-01
   8.096105e-01  -3.411121e-01   1.411766e-02  -6.400716e-01  -9.295029e-01  -8.061534e-01  -4.611107e-01   2.415799e-02
  -1.043602e-01   8.441097e-02   8.295269e-01  -5.047639e-01  -3.618092e-01  -5.914381e-01   8.665786e-01   2.074124e-01
  -5.776156e-01  -9.362250e-01   5.582883e-01  -5.792424e-01  -7.154291e-02  -1.782239e-02   1.908364e-01  -9.779553e-01
   1.945047e-01  -8.887756e-01  -3.362328e-01  -2.815233e-01  -2.589824e-01  -4.470449e-01  -6.530535e-01  -9.558517e-01
  -8.807683e-01   2.953943e-01  -5.218915e-01  -5.473964e-01   7.784108e-01   5.890542e-01  -1.858172e-01   2.913583e-01
   4.317581e-01   3.504570e-01   7.839495e-01   7.881001e-01  -5.718433e-01   6.731761e-01  -7.341615e-01   3.818158e-02
   5.538039e-01   3.061379e-01   9.416731e-01  -7.148797e-01  -2.625880e-01   3.876436e-01   6.007479e-01   2.928547e-01
   4.619048e-01   9.516391e-01  -1.987824e-01   6.675107e-01   5.130017e-01  -5.506506e-01   4.631561e-01   9.338578e-01
   6.927808e-01  -2.574015e-02   2.715463e-01   2.082701e-01   8.172373e-01   7.392674e-01  -6.516045e-01   2.052941e-01
  -3.885412e+05  -3.371275e+05  -1.577715e+05  -5.089699e+05  -4.938706e+05  -2.641513e+05  -6.357339e+05  -8.682835e+05
  -3.755502e+04  -4.773922e+04  -2.497773e+04   1.221664e+04  -2.170838e+04  -2.907891e+04   6.576289e+04  -1.302676e+03
   3.753524e+05   3.839065e+05   1.120710e+05   3.697460e+05   4.792994e+05   2.380847e+05   6.605325e+05   8.124630e+05
   3.773149e-02  -4.530967e-01   3.538927e-01  -4.755045e-01  -7.094539e-01  -5.408556e-01   7.084242e-01   5.561009e-01
  -7.317734e-01  -7.579624e-01   6.917028e-01  -6.614539e-01   7.044104e-01  -6.961252e-01   6.372012e-01  -7.202892e-01
  -6.805028e-01   4.692509e-01  -6.295293e-01  -5.799778e-01   2.193590e-02   4.721068e-01  -3.034959e-01   4.146508e-01
  -9.989051e-01  -7.817998e-01   9.226778e-01  -7.511230e-01  -2.424568e-01  -6.845229e-01   7.789623e-02  -5.891214e-01
  -8.770968e-03   8.491897e-02  -1.480506e-01  -3.792372e-02  -2.147305e-01   3.812133e-02  -4.979730e-01   1.029884e-02
  -4.595399e-02  -6.177198e-01   3.560151e-01   6.590720e-01  -9.461002e-01  -7.279939e-01  -8.636869e-01   8.079789e-01
   2.765924e-02   4.283601e-01  -1.530545e-01   4.579407e-01   6.617324e-01   4.887776e-01  -7.014751e-01  -5.862489e-01
   6.814916e-01  -6.467471e-01   7.068439e-01  -7.490264e-01   6.765330e-01  -7.169075e-01   5.882155e-01  -6.935974e-01
  -7.313031e-01  -6.310514e-01   6.906128e-01   4.788004e-01  -3.231305e-01  -4.971318e-01  -4.024117e-01  -4.186106e-01
  -2.949292e-02  -7.574950e-02  -3.553290e-02  -4.301498e-02  -2.788004e-02  -7.662410e-02  -3.129093e-02  -9.422709e-02
  -2.043417e-03  -1.924207e-02  -1.388510e-02  -1.715623e-03  -1.375136e-02  -3.103815e-02  -1.217017e-02  -7.451771e-02
   3.433781e-03   3.729321e-02   3.125256e-02   2.359097e-02   3.859903e-02   1.500434e-02   3.351890e-02  -4.429669e-02
   1.683129e-01   6.055986e-02  -5.586740e-01   2.558013e-02   9.824316e-01  -4.603629e-01   9.628396e-01   1.253966e-01
   8.869395e-01  -4.339633e-01  -8.259529e-01   2.447921e-01  -9.170046e-02   3.349931e-01  -2.655249e-01   4.624241e-01
  -4.301269e-01   8.988929e-01   7.540042e-02  -9.692381e-01   1.625401e-01  -8.220983e-01  -4.936102e-02  -8.777469e-01
   9.587183e-01   8.473593e-02  -4.819988e-01  -1.141032e-01   1.196628e-01  -8.876915e-01   2.676319e-01  -4.082498e-01
  -2.487501e-01   8.995301e-01   3.973122e-01   9.639339e-01   9.778756e-01  -1.824227e-01   9.625848e-01   8.304039e-01
  -1.377771e-01   4.285621e-01   7.809098e-01   2.404411e-01  -1.715814e-01   4.227596e-01   4.246995e-02   3.791590e-01
   2.291941e-01   9.945614e-01   6.749522e-01   9.931395e-01   1.432099e-01   8.347874e-03  -3.623734e-02   9.042167e-01
   3.891808e-01  -5.021486e-02  -3.999311e-01   1.044427e-01  -1.880170e-01  -9.243926e-01   5.410233e-02   3.107947e-01
   8.921930e-01  -9.124770e-02   6.200763e-01   5.258913e-02  -9.716690e-01  -3.813512e-01  -9.978776e-01   2.929144e-01
      10      13       4       1      11      14       5       2
      11      14       5       2      12      15       6       3
      13      16       7       4      14      17       8       5
      14      17       8       5      15      18       9       6
      19      22      13      10      20      23      14      11
      20      23      14      11      21      24      15      12
      22      25      16      13      23      26      17      14
      23      26      17      14      24      27      18      15
