     VARIABLES=
              x              y              z      nomin_den    nomin_voidr      fabric_xx      fabric_yy      fabric_zz      fabric_xy      fabric_xz      fabric_yz       sigma_xx       sigma_yy       sigma_zz       sigma_xy       sigma_xz       sigma_yz    sigmaDot_xx    sigmaDot_yy    sigmaDot_zz    sigmaDot_xy    sigmaDot_xz    sigmaDot_yz       Oldro_xx       Oldro_xy       Oldro_xz       Oldro_yx       Oldro_yy       Oldro_yz       Oldro_zx       Oldro_zy       Oldro_zz       Trues_xx       Trues_xy       Trues_xz       Trues_yx       Trues_yy       Trues_yz       Trues_zx       Trues_zy       Trues_zz           F_xX           F_xY           F_xZ           F_yX           F_yY           F_yZ           F_zX           F_zY           F_zZ           R_xX           R_xY           R_xZ           R_yX           R_yY           R_yZ           R_zX           R_zY           R_zZ           U_xX           U_yY           U_zZ           U_xY           U_xZ           U_yZ       Green_xx       Green_yy       Green_zz       Green_xy       Green_xz       Green_yz      Green_vol      Green_shr       Euler_xx       Euler_yy       Euler_zz       Euler_xy       Euler_xz       Euler_yz      Euler_vol      Euler_shr           l_xx           l_xy           l_xz           l_yx           l_yy           l_yz           l_zx           l_zy           l_zz           d_xx           d_yy           d_zz           d_xy           d_xz           d_yz           w_xy           w_xz           w_yz     norm_sigma  norm_sigmaDot     norm_Oldro     norm_Trues         norm_F         norm_U         norm_l         norm_d         norm_w              p              q        sigma_1        sigma_2        sigma_3     sigma_1_v1     sigma_1_v2     sigma_1_v3     sigma_2_v1     sigma_2_v2     sigma_2_v3     sigma_3_v1     sigma_3_v2     sigma_3_v3     sigmaDot_1     sigmaDot_2     sigmaDot_3  sigmaDot_1_v1  sigmaDot_1_v2  sigmaDot_1_v3  sigmaDot_2_v1  sigmaDot_2_v2  sigmaDot_2_v3  sigmaDot_3_v1  sigmaDot_3_v2  sigmaDot_3_v3            d_1            d_2            d_3         d_1_v1         d_1_v2         d_1_v3         d_2_v1         d_2_v2         d_2_v3         d_3_v1         d_3_v2         d_3_v3
ZONE I=2, J=2, K=2, DATAPACKING=POINT, STRANDID=5, SOLUTIONTIME=33
   5.082436e-03   5.082438e-03   4.852829e-03   1.586508e+03   6.703356e-01   3.429887e-01   3.337297e-01   3.148070e-01  -2.498870e-02  -3.637976e-02   4.421728e-03  -8.362718e+01  -8.641187e+01  -6.659916e+01  -5.543725e+00   2.616330e+01   1.126079e+01  -6.427880e+04   1.031790e+05  -8.133310e+04   5.025386e+05  -4.145409e+04   8.823312e+05  -6.427886e+04   1.544683e+05  -2.911807e+05   8.506160e+05   1.031784e+05   2.545338e+04   2.082770e+05   1.739216e+06  -8.133234e+04  -6.428057e+04   1.544682e+05  -2.911801e+05   8.506159e+05   1.031767e+05   2.545362e+04   2.082775e+05   1.739216e+06  -8.133371e+04   1.029361e+00  -1.539523e-02   2.638357e-03   1.892331e-02   9.908202e-01   5.079277e-03   2.279162e-03  -2.204985e-02   1.019853e+00   9.998560e-01  -1.696772e-02  -2.087218e-05   1.696646e-02   9.997653e-01   1.346936e-02  -2.076769e-04  -1.346777e-02   9.999093e-01   1.029533e+00   9.911458e-01   1.019828e+00   1.422272e-03   2.512355e-03  -8.701822e-03   2.997324e-02  -8.776089e-03   2.006606e-02   1.426046e-03   2.568173e-03  -8.747784e-03   1.375440e-02   2.557103e-02   2.820412e-02  -9.255580e-03   1.936080e-02   2.077911e-03   2.470759e-03  -8.146465e-03   1.276978e-02   2.477030e-02  -4.387900e-03   3.807677e-02  -4.822682e-03   8.591905e-04  -4.121930e-03  -5.830678e-03   4.064109e-02   4.342807e-02   2.902596e-02  -4.387900e-03  -4.121930e-03   2.902596e-02   1.946798e-02   1.790920e-02   1.879870e-02   1.860879e-02  -2.273189e-02  -2.462937e-02   1.434761e+02   1.980522e+06   1.980526e+06   1.980527e+06   1.755713e+00   1.755713e+00   7.696934e-02   5.463530e-02   5.421497e-02  -7.887940e+01   5.222007e+01  -1.080548e+02  -8.074095e+01  -4.784249e+01  -6.918002e-01  -4.765165e-01   5.425353e-01  -4.602160e-01   8.699346e-01   1.772431e-01   5.564295e-01   1.270666e-01   8.211214e-01  -1.846969e+06  -2.303132e+05   2.034849e+06  -2.582055e-01   7.033131e-01  -6.623297e-01  -9.013590e-01   7.134994e-02   4.271546e-01   3.476806e-01   7.072905e-01   6.155147e-01  -2.373158e-02  -4.735946e-03   4.898365e-02  -7.022421e-01   7.117752e-01  -1.523663e-02   5.709622e-01   5.502729e-01  -6.092634e-01   4.252743e-01   4.365500e-01   7.928215e-01
   5.082436e-03   5.082438e-03   1.422867e-02   1.559336e+03   6.994418e-01   3.270203e-01   3.382508e-01   3.347289e-01  -1.915511e-02  -2.765501e-02  -1.631707e-02  -3.851824e+01  -2.916022e+01  -3.983219e+01  -4.497743e-01   7.341160e+00   2.421827e+00  -2.831917e+03   1.818679e+05   3.690135e+03  -7.063549e+05  -5.915278e+03   6.481455e+05  -2.831596e+03   3.713640e+04   9.789641e+04  -1.449846e+06   1.818691e+05   2.114104e+04  -1.097291e+05   1.275153e+06   3.687774e+03  -2.831284e+03   3.713640e+04   9.789635e+04  -1.449846e+06   1.818693e+05   2.114103e+04  -1.097292e+05   1.275153e+06   3.688097e+03   8.394091e-01   2.494588e-02  -3.085470e-01   2.474858e-02   8.036056e-01  -1.150658e-01   6.679842e-02   7.362495e-02   1.317341e+00   9.854370e-01  -3.112693e-03  -1.700124e-01  -1.155711e-02   9.962944e-01  -8.522886e-02   1.696477e-01   8.595253e-02   9.817494e-01   8.382310e-01   8.068783e-01   1.355562e+00   2.778554e-02  -7.923995e-02  -4.502542e-04  -1.451589e-01  -1.740876e-01   4.219143e-01   2.287296e-02  -8.692429e-02  -1.587686e-03   3.422262e-02   4.016954e-01  -1.890386e-01  -2.688995e-01   1.852211e-01   6.122996e-02  -1.344260e-01  -2.775800e-02  -9.090564e-02   3.293810e-01  -5.789719e-03  -2.638671e-02  -5.387218e-02   2.350033e-02   2.259146e-02   2.621066e-02   1.983905e-02   1.750316e-02  -2.491007e-02  -5.789719e-03   2.259146e-02  -2.491007e-02  -1.443191e-03  -1.701657e-02   2.185691e-02  -2.494352e-02  -3.685561e-02   4.353749e-03   6.357085e+01   1.945408e+06   1.945409e+06   1.945409e+06   1.790345e+00   1.790345e+00   8.186629e-02   5.199181e-02   6.323718e-02  -3.583688e+01   1.670135e+01  -4.667578e+01  -3.262359e+01  -2.821128e+01   6.548605e-01   1.489423e-01  -7.409277e-01   7.357642e-01  -3.496173e-01   5.800162e-01   1.726522e-01   9.249778e-01   3.385370e-01  -1.785900e+06  -1.079608e+05   2.076587e+06  -5.408026e-01  -7.003550e-01   4.658706e-01  -6.593678e-01   9.084542e-03  -7.517656e-01   5.222706e-01  -7.137369e-01  -4.667045e-01  -4.038718e-02  -4.597091e-04   3.273855e-02   4.125801e-01  -2.902102e-01   8.634557e-01   8.863423e-01   3.466062e-01  -3.070204e-01   2.101787e-01  -8.919877e-01  -4.002284e-01
   5.082436e-03   1.491753e-02   4.852829e-03   1.517723e+03   7.460369e-01   3.584212e-01   3.315212e-01   3.020576e-01   1.649555e-02  -4.954090e-03   1.605456e-02  -9.782281e+01  -1.214671e+02  -6.238014e+01  -7.838286e-01   1.855330e+01  -1.951942e+01  -1.288724e+05   1.935404e+05  -1.016750e+05   1.704609e+04  -9.007675e+05  -2.173447e+05  -1.288680e+05   5.799172e+04  -1.423807e+06  -2.390551e+04   1.935404e+05  -4.650636e+04  -3.777223e+05  -3.881817e+05  -1.016728e+05  -1.288732e+05   5.799174e+04  -1.423806e+06  -2.390561e+04   1.935338e+05  -4.650737e+04  -3.777214e+05  -3.881828e+05  -1.016762e+05   1.027329e+00   5.859464e-03   1.291551e-02   5.120565e-02   1.004568e+00   4.934794e-02   4.252314e-02   2.791768e-02   1.026687e+00   9.996602e-01  -2.182309e-02  -1.425650e-02   2.197085e-02   9.997056e-01   1.029104e-02   1.402772e-02  -1.060077e-02   9.998454e-01   1.028701e+00   1.003849e+00   1.026852e+00   2.832031e-02   2.839741e-02   3.816788e-02   2.991728e-02   4.985544e-03   2.834404e-02   2.932315e-02   2.972666e-02   3.915588e-02   2.108229e-02   6.803580e-02   2.360285e-02   2.573687e-03   2.272479e-02   2.587845e-02   2.376640e-02   3.667896e-02   1.630044e-02   6.023722e-02   2.583132e-02  -1.966258e-02   1.490618e-02  -5.332710e-03  -3.241939e-03   2.036025e-02   3.483856e-02  -1.024501e-02   3.127920e-02   2.583132e-02  -3.241939e-03   3.127920e-02  -1.249764e-02   2.487237e-02   5.057618e-03  -7.164933e-03  -9.966188e-03   1.530263e-02   1.722580e+02   1.546317e+06   1.546313e+06   1.546312e+06   1.768189e+00   1.768189e+00   6.345573e-02   5.706984e-02   2.774281e-02  -9.389000e+01   6.930150e+01  -1.281835e+02  -1.035550e+02  -4.993156e+01  -1.266070e-01   9.380766e-01   3.224640e-01  -9.325836e-01  -2.233400e-01   2.835616e-01   3.380216e-01  -2.648237e-01   9.031112e-01  -6.071971e+05   3.910342e+04   5.310865e+05  -5.877113e-01  -3.670744e-01  -7.210075e-01  -7.363939e-01   6.118346e-01   2.887601e-01  -3.351409e-01  -7.006531e-01   6.298935e-01  -1.317866e-02   1.308318e-02   5.396406e-02   4.858269e-01   7.954355e-01  -3.622908e-01  -5.481896e-01   6.001326e-01   5.825195e-01   6.807792e-01  -8.439958e-02   7.276100e-01
   5.082436e-03   1.491753e-02   1.422867e-02   1.595814e+03   6.605950e-01   3.261975e-01   2.711282e-01   3.872897e-01   3.266091e-02   1.284039e-02   3.536455e-02  -3.984338e+01  -4.049269e+01  -5.726425e+01  -1.421515e+01  -1.217433e+01  -3.015296e+00  -1.113075e+04   7.762590e+04  -6.458052e+04  -2.433587e+05  -5.303270e+04  -1.000463e+05  -1.112837e+04  -2.590330e+05  -6.293626e+04  -2.276799e+05   7.762192e+04  -1.565038e+04  -4.312083e+04  -1.844371e+05  -6.458393e+04  -1.112450e+04  -2.590321e+05  -6.293522e+04  -2.276781e+05   7.762585e+04  -1.565005e+04  -4.311950e+04  -1.844368e+05  -6.457837e+04   1.092850e+00   9.192466e-02  -1.461609e-01   9.744517e-02   9.261557e-01   2.080972e-02   1.544616e-01  -2.052422e-02   1.177130e+00   9.912059e-01  -9.597611e-04  -1.323252e-01   4.333879e-03   9.996727e-01   2.521303e-02   1.322577e-01  -2.556479e-02   9.908856e-01   1.104090e+00   9.262890e-01   1.186267e+00   9.241562e-02   1.089912e-02  -9.149903e-03   1.138371e-01  -6.668214e-02   2.037158e-01   9.376951e-02   1.205864e-02  -9.161216e-03   8.362360e-02   1.931682e-01   7.737418e-02  -9.643329e-02   1.452268e-01   9.192333e-02  -2.877962e-03   9.023139e-03   4.205591e-02   1.791649e-01   1.345024e-02   1.163344e-02   4.029018e-02   5.476387e-02  -6.959325e-02   1.707331e-02   4.907770e-02   1.352641e-02  -4.092934e-02   1.345024e-02  -6.959325e-02  -4.092934e-02   3.319865e-02   4.468394e-02   1.529986e-02  -2.156522e-02  -4.393761e-03   1.773453e-03   8.526569e+01   4.115130e+05   4.115078e+05   4.115056e+05   1.871294e+00   1.871294e+00   1.197503e-01   1.156076e-01   3.122528e-02  -4.586677e+01   4.385167e+01  -7.013720e+01  -4.784535e+01  -1.961776e+01  -5.771420e-01  -4.238806e-01  -6.980203e-01  -3.469539e-01  -6.464943e-01   6.794616e-01   7.392768e-01  -6.343267e-01  -2.260520e-01  -3.037123e+05  -1.715070e+02   3.057984e+05  -5.558953e-01  -6.067262e-01  -5.682110e-01  -6.482533e-01  -1.114640e-01   7.532221e-01   5.203346e-01  -7.870572e-01   3.313500e-01  -8.123980e-02  -6.553520e-02   4.970266e-02  -3.383314e-01   9.408561e-01   1.793611e-02  -4.295578e-01  -1.713711e-01   8.866296e-01   8.372646e-01   2.922700e-01   4.621323e-01
   1.491752e-02   5.082438e-03   4.852829e-03   1.622980e+03   6.327993e-01   3.901775e-01   3.448469e-01   2.649756e-01   2.125291e-02   2.611549e-03  -2.622676e-02  -1.902634e+02  -1.619115e+02  -6.486522e+01  -2.277838e+01  -7.658024e+00   2.460956e+01   5.817671e+04  -1.980975e+05  -1.758602e+05   1.789390e+05  -4.996022e+04   5.501395e+05   5.817021e+04  -2.037507e+05   1.349414e+05   5.616264e+05  -1.981069e+05   2.375695e+05  -2.348744e+05   8.627029e+05  -1.758588e+05   5.817767e+04  -2.037498e+05   1.349418e+05   5.616272e+05  -1.981006e+05   2.375685e+05  -2.348742e+05   8.627019e+05  -1.758562e+05   9.506373e-01  -2.394701e-02  -1.849497e-02   3.774548e-02   1.052775e+00   1.630139e-02  -4.203428e-02  -2.161807e-02   9.296170e-01   9.994409e-01  -3.117070e-02   1.209051e-02   3.092837e-02   9.993267e-01   1.973706e-02  -1.269759e-02  -1.935209e-02   9.997321e-01   9.518070e-01   1.053231e+00   9.294661e-01   8.901492e-03  -2.978434e-02  -1.123119e-03  -4.654853e-02   5.468801e-02  -6.760218e-02   8.940641e-03  -2.802124e-02  -1.245965e-03  -1.982090e-02   8.279432e-02  -5.503823e-02   4.947740e-02  -7.950142e-02   4.885225e-03  -3.622903e-02  -4.460079e-03  -2.835408e-02   8.980881e-02  -1.962447e-02   1.272279e-02   2.517324e-02  -8.814008e-03  -2.588716e-02   1.406978e-02  -3.670449e-02  -2.317289e-02   6.299542e-03  -1.962447e-02  -2.588716e-02   6.299542e-03   1.954391e-03  -5.765627e-03  -4.551555e-03   1.076840e-02   3.093886e-02   1.862134e-02   2.626826e+02   1.142178e+06   1.142176e+06   1.142174e+06   1.697373e+00   1.697373e+00   6.364243e-02   3.479233e-02   5.329026e-02  -1.390134e+02   1.276090e+02  -2.019223e+02  -1.571561e+02  -5.796182e+01   8.684897e-01   4.928155e-01  -5.346523e-02   4.889637e-01  -8.339475e-01   2.558245e-01  -8.148708e-02   2.483235e-01   9.652436e-01  -1.290829e+06   2.032229e+05   7.718256e+05  -3.922284e-01   6.856912e-01  -6.131757e-01  -8.348732e-01   1.449605e-02   5.502514e-01  -3.861912e-01  -7.277482e-01  -5.667795e-01  -2.673473e-02  -2.069411e-02   8.216746e-03   1.857190e-01  -9.772697e-01  -1.022366e-01  -9.598459e-01  -1.581701e-01  -2.316854e-01   2.102483e-01   1.411597e-01  -9.674035e-01
   1.491752e-02   5.082438e-03   1.422867e-02   1.377950e+03   9.231463e-01   3.957543e-01   2.545663e-01   3.226524e-01   1.181462e-02  -2.677681e-02  -5.267757e-02  -9.951604e+00  -5.596658e+00  -1.007937e+01  -1.560411e+00   5.042894e-01   1.265157e+00  -8.420071e+04  -1.688495e+04   4.442775e+04   1.145874e+05  -3.918379e+03  -1.031340e+04  -8.420139e+04  -2.129460e+02  -3.279677e+04   2.293865e+05  -1.688511e+04  -8.505678e+04   2.495991e+04   6.443099e+04   4.442726e+04  -8.420090e+04  -2.128838e+02  -3.279682e+04   2.293866e+05  -1.688484e+04  -8.505684e+04   2.495991e+04   6.443093e+04   4.442775e+04   1.126801e+00  -5.411845e-02  -3.048026e-02  -1.030024e-01   8.498038e-01  -2.875589e-02  -1.653446e-01   1.994574e-01   9.439935e-01   9.978747e-01   3.180789e-02   5.687069e-02  -2.444781e-02   9.917639e-01  -1.257249e-01  -6.040133e-02   1.240673e-01   9.904337e-01   1.136912e+00   8.658295e-01   9.368449e-01  -8.682677e-02  -8.673093e-02   8.763015e-02   1.538146e-01  -1.175607e-01  -5.356019e-02  -9.074589e-02  -9.373373e-02   8.274959e-02  -5.768774e-03   2.421913e-01   8.287694e-02  -2.198678e-01  -5.916175e-02  -7.291709e-02  -8.619605e-02   1.025477e-01  -6.538419e-02   2.482078e-01  -2.260275e-02  -6.955171e-02   1.521985e-02  -8.339807e-03  -9.198520e-04   4.834117e-02  -3.271317e-02   5.417463e-03  -2.541526e-02  -2.260275e-02  -9.198520e-04  -2.541526e-02  -3.894576e-02  -8.746659e-03   2.687932e-02  -3.060595e-02   2.396651e-02   2.146185e-02   1.552626e+01   2.739559e+05   2.739555e+05   2.739555e+05   1.722030e+00   1.722030e+00   9.865430e-02   7.608688e-02   6.279696e-02  -8.542545e+00   5.896400e+00  -1.100858e+01  -9.960604e+00  -4.658455e+00  -7.123849e-01  -3.830357e-01   5.880403e-01   6.249034e-01   3.510931e-02   7.799123e-01   3.193799e-01  -9.230661e-01  -2.143489e-01  -2.840764e+05   1.996709e+04   2.074514e+05  -7.480299e-01   6.596876e-01  -7.255064e-02   2.977228e-01   2.358570e-01  -9.250582e-01  -5.931378e-01  -7.135711e-01  -3.728321e-01  -5.607118e-02  -3.262583e-02   3.975916e-02  -6.564574e-01  -6.500818e-01   3.826974e-01   5.394582e-01  -4.993608e-02   8.405303e-01   5.273031e-01  -7.582216e-01  -3.834729e-01
   1.491752e-02   1.491753e-02   4.852829e-03   1.555429e+03   7.037104e-01   3.440789e-01   3.565128e-01   2.851226e-01  -1.192582e-02  -1.434384e-02   4.251647e-02  -3.883888e+01  -3.728758e+01  -1.488854e+01   1.741483e+01   3.336511e+00  -5.898982e+00   1.097991e+04   9.237493e+02  -1.961367e+04   1.079430e+05  -1.584769e+04  -7.085239e+04   1.097711e+04  -3.102008e+04  -1.694513e+04   2.469105e+05   9.204977e+02  -3.273692e+04  -1.475324e+04  -1.089660e+05  -1.961412e+04   1.098091e+04  -3.102174e+04  -1.694544e+04   2.469088e+05   9.241436e+02  -3.273636e+04  -1.475359e+04  -1.089655e+05  -1.961266e+04   1.024725e+00   2.325950e-02  -7.627513e-02   8.775296e-02   7.392669e-01   6.845585e-02  -2.718251e-01  -3.332259e-01   8.511738e-01   9.944797e-01  -6.375946e-02   8.333599e-02   4.124465e-02   9.678114e-01   2.482741e-01  -9.648334e-02  -2.434664e-01   9.650985e-01   1.048915e+00   7.951172e-01   8.321059e-01   8.577265e-02  -1.551547e-01  -1.361166e-01   6.582585e-02  -1.709520e-01  -1.324995e-01   8.964332e-02  -1.517622e-01  -1.174001e-01  -7.920854e-02   2.851814e-01  -4.348365e-02  -4.821660e-01  -1.803464e-01   2.138600e-02  -2.049098e-01  -2.206204e-01  -2.353320e-01   4.343530e-01  -3.205434e-02   8.559115e-03   2.828794e-03   1.912558e-02  -3.441188e-02  -1.624682e-03  -3.773741e-02   1.955105e-02  -3.131013e-02  -3.205434e-02  -3.441188e-02  -3.131013e-02   1.384235e-02  -1.745431e-02   8.963186e-03  -5.283235e-03   2.028310e-02  -1.058787e-02   6.180176e+01   2.754677e+05   2.754691e+05   2.754675e+05   1.588946e+00   1.588946e+00   7.381075e-02   6.591803e-02   3.320903e-02  -3.033833e+01   4.057021e+01  -5.704598e+01  -2.068228e+01  -1.328673e+01   7.075214e-01  -6.890168e-01  -1.570648e-01   7.022213e-01   6.605016e-01   2.657497e-01   7.936445e-02   2.983178e-01  -9.511613e-01  -2.610988e+05  -2.552375e+04   2.789126e+05  -6.356509e-01   7.174737e-01   2.849200e-01  -4.042074e-01   5.112518e-03  -9.146531e-01   6.576962e-01   6.965668e-01  -2.867584e-01  -5.960637e-02  -2.473273e-02  -1.343724e-02   6.268016e-01  -5.431337e-01   5.586819e-01   2.057472e-01   8.069359e-01   5.536448e-01  -7.515237e-01  -2.320782e-01   6.175370e-01
   1.491752e-02   1.491753e-02   1.422867e-02   1.374026e+03   9.286392e-01   3.586068e-01   3.242657e-01   2.800905e-01   1.234280e-02  -3.435852e-02  -1.772417e-02  -1.970012e+00  -2.509444e+00  -1.686512e+00  -4.497664e-01   2.780055e-01   3.831452e-01   9.424510e+02   1.780483e+04   7.074595e+01   6.322109e+02   1.117254e+04  -2.364349e+04   9.424447e+02   1.996251e+04   1.687061e+04  -1.869869e+04   1.780463e+04  -7.652718e+03   5.474756e+03  -3.963414e+04   7.065592e+01   9.425046e+02   1.996251e+04   1.687060e+04  -1.869867e+04   1.780471e+04  -7.652729e+03   5.474748e+03  -3.963415e+04   7.070713e+01   3.809578e-01   3.297074e-01   7.839015e-01   7.243992e-01   3.896295e-01  -9.954553e-01   5.524290e-01  -5.418298e-01   2.499718e+00   1.284900e-01   8.972014e-01   4.225162e-01   8.945900e-01   7.901935e-02  -4.398462e-01   4.280176e-01  -4.344946e-01   7.924742e-01   9.334388e-01   5.620243e-01   2.750020e+00   1.590101e-01   2.801223e-01  -4.614564e-01  -1.246963e-02  -2.229512e-01   3.427011e+00   5.426472e-02   4.792215e-01  -7.419110e-01   1.063863e+00   2.577455e+00  -2.084076e+00  -3.346571e-01  -5.070277e-02   8.449033e-01   1.035211e+00  -5.259861e-01  -8.231454e-01   2.089594e+00   1.276211e-02  -3.988457e-02   3.719675e-02  -9.508502e-02  -2.480425e-02  -1.707733e-02   3.006806e-02   1.501851e-02  -1.832400e-02   1.276211e-02  -2.480425e-02  -1.832400e-02  -6.748480e-02   3.363240e-02  -1.029410e-03   2.760022e-02   3.564342e-03  -1.604792e-02   3.747239e+00   5.486408e+04   5.486402e+04   5.486404e+04   3.063198e+00   3.063198e+00   1.206263e-01   1.117438e-01   4.543155e-02  -2.055323e+00   1.686873e+00  -3.178885e+00  -1.535014e+00  -1.452070e+00   5.432006e-01   7.818649e-01  -3.059744e-01  -3.185500e-01  -1.452588e-01  -9.367101e-01  -7.768263e-01   6.062896e-01   1.701584e-01  -3.347902e+04  -3.266690e+03   5.556374e+04   2.358893e-01   6.466332e-01   7.254114e-01  -9.188218e-01  -9.465140e-02   3.831549e-01   3.164219e-01  -7.569059e-01   5.718134e-01  -8.252438e-02  -2.037606e-02   7.253431e-02   6.200227e-01   7.193265e-01  -3.132750e-01   4.191928e-02  -4.290894e-01  -9.022888e-01   7.834632e-01  -5.463073e-01   2.961989e-01
