     VARIABLES=
              x              y              z      nomin_den    nomin_voidr      fabric_xx      fabric_yy      fabric_zz      fabric_xy      fabric_xz      fabric_yz       sigma_xx       sigma_yy       sigma_zz       sigma_xy       sigma_xz       sigma_yz    sigmaDot_xx    sigmaDot_yy    sigmaDot_zz    sigmaDot_xy    sigmaDot_xz    sigmaDot_yz       Oldro_xx       Oldro_xy       Oldro_xz       Oldro_yx       Oldro_yy       Oldro_yz       Oldro_zx       Oldro_zy       Oldro_zz       Trues_xx       Trues_xy       Trues_xz       Trues_yx       Trues_yy       Trues_yz       Trues_zx       Trues_zy       Trues_zz           F_xX           F_xY           F_xZ           F_yX           F_yY           F_yZ           F_zX           F_zY           F_zZ           R_xX           R_xY           R_xZ           R_yX           R_yY           R_yZ           R_zX           R_zY           R_zZ           U_xX           U_yY           U_zZ           U_xY           U_xZ           U_yZ       Green_xx       Green_yy       Green_zz       Green_xy       Green_xz       Green_yz      Green_vol      Green_shr       Euler_xx       Euler_yy       Euler_zz       Euler_xy       Euler_xz       Euler_yz      Euler_vol      Euler_shr           l_xx           l_xy           l_xz           l_yx           l_yy           l_yz           l_zx           l_zy           l_zz           d_xx           d_yy           d_zz           d_xy           d_xz           d_yz           w_xy           w_xz           w_yz     norm_sigma  norm_sigmaDot     norm_Oldro     norm_Trues         norm_F         norm_U         norm_l         norm_d         norm_w              p              q        sigma_1        sigma_2        sigma_3     sigma_1_v1     sigma_1_v2     sigma_1_v3     sigma_2_v1     sigma_2_v2     sigma_2_v3     sigma_3_v1     sigma_3_v2     sigma_3_v3     sigmaDot_1     sigmaDot_2     sigmaDot_3  sigmaDot_1_v1  sigmaDot_1_v2  sigmaDot_1_v3  sigmaDot_2_v1  sigmaDot_2_v2  sigmaDot_2_v3  sigmaDot_3_v1  sigmaDot_3_v2  sigmaDot_3_v3            d_1            d_2            d_3         d_1_v1         d_1_v2         d_1_v3         d_2_v1         d_2_v2         d_2_v3         d_3_v1         d_3_v2         d_3_v3
ZONE I=2, J=2, K=2, DATAPACKING=POINT, STRANDID=5, SOLUTIONTIME=48
   5.119311e-03   5.118421e-03   4.887727e-03   1.582850e+03   6.741954e-01   3.538887e-01   3.332251e-01   3.128861e-01  -3.643261e-02  -3.497973e-02  -1.699386e-03  -9.044270e+01  -1.226747e+02  -7.713765e+01   4.357932e+00   3.527775e+01   2.129545e+01   7.486470e+04  -2.039265e+05  -7.579632e+05  -1.223432e+06  -2.066300e+05   2.620176e+03   7.486691e+04   3.030663e+05  -5.562946e+05  -2.749937e+06  -2.039307e+05   2.544445e+05   1.430333e+05  -2.491950e+05  -7.579598e+05   7.486412e+04   3.030664e+05  -5.562935e+05  -2.749937e+06  -2.039344e+05   2.544451e+05   1.430344e+05  -2.491943e+05  -7.579621e+05   1.030655e+00   7.588337e-04   3.294341e-02   1.633018e-02   9.882785e-01   3.414264e-03   4.341050e-03  -2.364970e-03   1.043868e+00   9.998755e-01  -7.708875e-03   1.376600e-02   7.671468e-03   9.999667e-01   2.768049e-03  -1.378688e-02  -2.662099e-03   9.999014e-01   1.030592e+00   9.882461e-01   1.044228e+00   8.372892e-03   1.857382e-02   3.813131e-04   3.126727e-02  -1.164969e-02   4.537888e-02   8.455297e-03   1.927026e-02   4.652628e-04   2.166549e-02   4.203588e-02   2.902622e-02  -1.193945e-02   4.055292e-02   8.507142e-03   1.678597e-02   3.062717e-04   1.921323e-02   3.856281e-02   1.223570e-02   6.090546e-03  -6.252920e-04  -4.247252e-02  -1.739373e-02   5.602613e-03   1.503771e-02   2.536608e-02   3.596509e-02   1.223570e-02  -1.739373e-02   3.596509e-02  -1.819099e-02   7.206208e-03   1.548435e-02   2.428153e-02  -7.831500e-03  -9.881734e-03   1.806055e+02   2.955071e+06   2.955074e+06   2.955074e+06   1.769179e+00   1.769179e+00   6.699330e-02   5.468962e-02   3.869300e-02  -9.675167e+01   8.421117e+01  -1.355975e+02  -1.124299e+02  -4.222759e+01   3.288638e-01   7.941001e-01  -5.111297e-01  -7.368578e-01   5.542860e-01   3.870499e-01   5.906684e-01   2.493432e-01   7.674235e-01  -2.821282e+06  -7.765436e+05   2.710800e+06   6.869733e-01   7.255804e-01   4.001022e-02   8.495180e-02  -2.550661e-02  -9.960585e-01   7.217000e-01  -6.876645e-01   7.916172e-02  -3.043226e-02   2.088044e-02   4.035888e-02   4.151175e-01   8.749983e-01  -2.491094e-01   9.041753e-01  -4.271123e-01   6.488702e-03   1.007201e-01   2.279321e-01   9.684536e-01
   5.119311e-03   5.118421e-03   1.419031e-02   1.563059e+03   6.953932e-01   2.193546e-01   3.696092e-01   4.110361e-01  -8.404057e-03  -7.116893e-03   9.404988e-03  -1.290850e+01  -1.690096e+01  -2.679540e+01  -1.282800e+00   8.963112e-01  -1.842453e-01   3.333682e+04   3.050073e+04   5.398377e+04   1.838248e+05  -3.804606e+05  -9.541173e+03   3.333746e+04   1.750812e+05  -7.216465e+05   1.925686e+05   3.049978e+04   2.037207e+04  -3.927860e+04  -3.945435e+04   5.398036e+04   3.333840e+04   1.750814e+05  -7.216465e+05   1.925686e+05   3.050100e+04   2.037209e+04  -3.927866e+04  -3.945434e+04   5.398230e+04   9.938405e-01  -8.803198e-02  -2.395343e-01   2.233854e-01   7.557297e-01  -2.574795e-01  -3.802439e-01   6.754558e-01   7.955410e-01   9.916601e-01  -5.573298e-02   1.162073e-01   1.066988e-01   8.607632e-01  -4.976967e-01  -7.228887e-02   5.059451e-01   8.595312e-01   1.036874e+00   9.971542e-01   7.841034e-01  -5.549031e-02  -3.225182e-01   1.942212e-01   9.110274e-02   1.755875e-02  -1.217210e-01  -8.775436e-02  -2.990379e-01   1.819273e-01  -4.353184e-03   4.349798e-01  -3.838816e-01  -5.003998e-01  -2.481147e-01   4.495193e-01  -5.302795e-01   4.077430e-01  -3.774654e-01   9.419562e-01   1.761919e-02   2.363991e-02  -7.266811e-02  -2.068718e-02  -2.640731e-02  -7.435012e-03  -3.893907e-03   1.399765e-02  -6.376184e-02   1.761919e-02  -2.640731e-02  -6.376184e-02   1.476363e-03  -3.828101e-02   3.281320e-03   2.216355e-02  -3.438710e-02  -1.071633e-02   3.429484e+01   7.726429e+05   7.726446e+05   7.726449e+05   1.724494e+00   1.724494e+00   1.077367e-01   8.961093e-02   5.980862e-02  -1.886829e+01   1.253000e+01  -2.685477e+01  -1.699536e+01  -1.275474e+01   6.505381e-02  -1.044127e-03  -9.978812e-01  -1.489573e-01  -9.888056e-01  -8.676184e-03   9.867014e-01  -1.492061e-01   6.448110e-02  -1.606555e+05   3.741771e+04   2.410591e+05  -7.043334e-01   7.098675e-01   1.600506e-03  -2.035509e-01  -1.998031e-01  -9.584601e-01   6.800599e-01   6.754013e-01  -2.852222e-01  -7.918342e-02  -2.616295e-02   3.279641e-02   3.677898e-01  -6.795050e-02   9.274230e-01   2.247733e-02   9.976849e-01   6.418458e-02   9.296373e-01   2.760433e-03  -3.684656e-01
   5.119311e-03   1.487953e-02   4.887727e-03   1.565067e+03   6.932181e-01   3.239641e-01   3.585270e-01   3.096349e-01   1.258647e-02  -9.043131e-03   1.008378e-02  -5.939514e+01  -8.627647e+01  -5.939821e+01  -5.532415e+00   3.575793e+00  -1.042087e+01   3.904523e+03  -1.282991e+04  -2.147982e+04  -6.408250e+05  -3.338647e+05  -4.773553e+05   3.903448e+03  -1.079421e+05  -5.804556e+05  -1.173710e+06  -1.283225e+04   8.362222e+04  -8.727593e+04  -1.038336e+06  -2.147964e+04   3.904527e+03  -1.079420e+05  -5.804557e+05  -1.173710e+06  -1.283068e+04   8.362241e+04  -8.727602e+04  -1.038336e+06  -2.147856e+04   1.004029e+00   1.262726e-02   2.720603e-03  -2.878685e-02   9.781157e-01   2.043426e-03   1.999677e-02  -1.972773e-03   1.002016e+00   9.997446e-01   2.090955e-02  -8.579629e-03  -2.089138e-02   9.997793e-01   2.202409e-03   8.623787e-03  -2.022606e-03   9.999608e-01   1.004546e+00   9.781678e-01   1.001958e+00  -7.827160e-03   1.131839e-02   7.317767e-05   4.651053e-03  -2.156322e-02   2.024036e-03  -7.759095e-03   1.135491e-02   2.815507e-05  -4.962709e-03   2.302307e-02   3.691677e-03  -2.231784e-02   1.955140e-03  -8.570831e-03   1.125128e-02  -4.363949e-05  -5.557008e-03   2.342365e-02  -5.919948e-03  -3.118984e-02   3.858170e-03   2.589029e-02  -1.516691e-02  -5.553758e-04  -1.535276e-02  -1.338074e-02   2.906219e-03  -5.919948e-03  -1.516691e-02   2.906219e-03  -2.649777e-03  -5.747293e-03  -6.968059e-03  -2.854007e-02   9.605463e-03   6.412683e-03   1.216942e+02   1.679155e+06   1.679157e+06   1.679157e+06   1.723434e+00   1.723434e+00   4.844157e-02   2.123064e-02   4.354131e-02  -6.835661e+01   3.556328e+01  -9.075110e+01  -6.390083e+01  -5.041790e+01   1.616020e-01   9.420868e-01   2.938661e-01  -7.666165e-01  -6.767447e-02   6.385290e-01   6.214369e-01  -3.284702e-01   7.112830e-01  -1.621111e+06   7.626847e+04   1.514437e+06  -5.299128e-01  -6.978390e-01  -4.818850e-01  -6.618835e-01  -1.492051e-02   7.494582e-01   5.301911e-01  -7.160992e-01   4.539816e-01  -1.908774e-02  -6.103396e-03   7.010493e-03  -3.334598e-01  -8.701543e-01  -3.628168e-01  -8.744819e-01   4.292802e-01  -2.258314e-01   3.522583e-01   2.419710e-01  -9.040819e-01
   5.119311e-03   1.487953e-02   1.419031e-02   1.580096e+03   6.771128e-01   2.917308e-01   3.585079e-01   3.497613e-01   7.404801e-02  -4.013926e-03   1.864713e-02  -2.899501e+01  -3.509008e+01  -3.987569e+01  -1.328857e+01   2.436350e+00   8.009492e-01  -9.277870e+04   2.655029e+04   5.815322e+03  -3.025825e+03  -2.971471e+05  -4.871760e+05  -9.277710e+04  -9.750079e+04  -6.575591e+05   9.145236e+04   2.655135e+04  -1.078201e+04   6.326520e+04  -9.635701e+05   5.813916e+03  -9.277736e+04  -9.750089e+04  -6.575590e+05   9.145224e+04   2.655104e+04  -1.078201e+04   6.326522e+04  -9.635701e+05   5.813566e+03   9.725057e-01   5.775625e-02  -1.549954e-01   1.228699e-01   9.615936e-01   9.817945e-02   2.658836e-01   2.245291e-02   1.229367e+00   9.817270e-01  -2.211169e-02  -1.890059e-01   2.990331e-02   9.988121e-01   3.847216e-02   1.879307e-01  -4.342106e-02   9.812220e-01   1.008377e+00   9.581993e-01   1.239355e+00   8.967529e-02   8.180856e-02   4.810960e-02   1.577924e-02  -3.574894e-02   2.725035e-01   9.014454e-02   9.409896e-02   5.652982e-02   8.417792e-02   2.515020e-01  -2.898857e-02  -5.175882e-02   1.771319e-01   8.653749e-02   1.360533e-02   5.720900e-02   3.212819e-02   1.891944e-01   2.176641e-02   1.180002e-02  -3.718323e-03   2.981460e-02   3.874169e-03   3.602450e-03   1.574225e-02  -1.056056e-02  -1.688280e-02   2.176641e-02   3.874169e-03  -1.688280e-02   2.080731e-02   6.011962e-03  -3.479054e-03  -9.007288e-03  -9.730285e-03   7.081503e-03   6.349840e+01   1.179910e+06   1.179909e+06   1.179909e+06   1.872183e+00   1.872183e+00   4.677727e-02   4.166771e-02   2.125829e-02  -3.465359e+01   2.668362e+01  -4.735572e+01  -3.908819e+01  -1.751687e+01   6.010240e-01   7.365507e-01  -3.102630e-01  -1.800698e-01  -2.534276e-01  -9.504469e-01   7.786816e-01  -6.271104e-01   1.968551e-02  -9.612009e+05  -7.941543e+04   9.802033e+05   1.248966e-01  -6.987237e-01  -7.044047e-01  -9.919834e-01  -7.417981e-02  -1.023051e-01   1.923038e-02   7.115353e-01  -7.023871e-01  -2.062832e-02  -6.269999e-03   3.565610e-02   3.139811e-01  -3.895667e-01  -8.658254e-01  -4.460312e-01   7.445204e-01  -4.967349e-01   8.381361e-01   5.421505e-01   6.000643e-02
   1.487983e-02   5.118421e-03   4.887727e-03   1.720867e+03   5.399210e-01   4.014804e-01   3.455161e-01   2.328016e-01  -4.529922e-03  -2.059122e-02  -1.158354e-03  -8.655324e+01  -6.695943e+01  -4.082197e+01  -2.488920e+00  -1.269951e+01   1.307208e+01   4.720300e+04  -6.259324e+04  -5.848308e+04  -1.681408e+05  -2.786670e+05   1.303484e+05   4.720018e+04  -6.448064e+04  -2.995057e+05  -2.718119e+05  -6.259695e+04   1.652574e+04  -2.578343e+05   2.441659e+05  -5.848275e+04   4.720341e+04  -6.448048e+04  -2.995051e+05  -2.718119e+05  -6.259445e+04   1.652522e+04  -2.578339e+05   2.441654e+05  -5.848123e+04   9.888118e-01  -2.772806e-02   5.843568e-02   3.487087e-02   1.014874e+00  -1.070714e-02   1.585136e-02   7.493100e-02   7.720851e-01   9.991636e-01  -3.187563e-02   2.561336e-02   3.308209e-02   9.982922e-01  -4.814755e-02  -2.403488e-02   4.895462e-02   9.985118e-01   9.887574e-01   1.017692e+00   7.729483e-01   4.068311e-03   3.947561e-02   2.524561e-02  -1.039201e-02   1.817587e-02  -2.001776e-01   4.579724e-03   3.482356e-02   2.268320e-02  -6.413125e-02   1.452982e-01  -1.218758e-02   1.150006e-02  -3.417677e-01  -4.754169e-04   5.000966e-02   5.549642e-02  -1.141517e-01   2.437979e-01  -2.001631e-02  -1.427441e-02   2.824924e-02  -4.938759e-02  -2.263042e-02   1.657275e-02  -4.700008e-02  -4.168815e-02   5.290948e-03  -2.001631e-02  -2.263042e-02   5.290948e-03  -3.183100e-02  -9.375420e-03  -1.255770e-02   1.755659e-02   3.762466e-02   2.913045e-02   1.197707e+02   5.510647e+05   5.510701e+05   5.510691e+05   1.617162e+00   1.617162e+00   9.275377e-02   5.880814e-02   7.172771e-02  -6.477821e+01   4.798647e+01  -8.864871e+01  -7.128792e+01  -3.439800e+01   9.716750e-01  -9.024248e-02   2.184126e-01   1.591444e-01   9.331069e-01  -3.224665e-01   1.747021e-01  -3.480917e-01  -9.210382e-01  -3.066501e+05  -2.633401e+05   4.961169e+05  -1.651823e-01  -7.834013e-01   5.991637e-01  -7.498382e-01  -2.948797e-01  -5.922741e-01   6.406696e-01  -5.471091e-01  -5.387153e-01  -5.706348e-02   7.858919e-03   1.184877e-02  -6.668236e-01  -7.047609e-01  -2.421949e-01  -5.536492e-01   2.509732e-01   7.940308e-01   4.988175e-01  -6.635695e-01   5.575452e-01
   1.487983e-02   5.118421e-03   1.419031e-02   1.421795e+03   8.638408e-01   3.169368e-01   3.221474e-01   3.331380e-01  -4.787910e-02  -2.685040e-02  -2.191940e-03  -6.312275e+00  -7.678446e+00  -9.150591e+00   6.392095e-01  -6.723769e-01   3.219616e-01  -4.651679e+03   6.404109e+02  -7.068472e+04  -4.590530e+04  -3.731870e+04   3.759326e+04  -4.652221e+03  -3.283950e+04  -3.020779e+04  -5.897026e+04   6.406124e+02   6.272139e+04  -4.443080e+04   1.246591e+04  -7.068526e+04  -4.651926e+03  -3.283954e+04  -3.020775e+04  -5.897028e+04   6.409712e+02   6.272136e+04  -4.443077e+04   1.246591e+04  -7.068484e+04   1.193631e+00  -4.188919e-01  -6.361729e-01  -2.986358e-01   1.206356e+00   4.186453e-01  -4.997532e-01  -8.188570e-02   1.934359e+00   9.959394e-01  -8.608536e-02  -2.634441e-02   8.931764e-02   9.814895e-01   1.694131e-01   1.127277e-02  -1.710782e-01   9.851930e-01   1.156477e+00   1.234095e+00   1.993400e+00  -3.103652e-01  -5.743917e-01   1.347347e-01   3.818453e-01   3.187351e-01   1.660862e+00  -4.096703e-01  -9.255399e-01   3.065633e-01   7.871473e-01   1.501982e+00  -9.388108e-02   3.521715e-02   2.894526e-01  -2.872873e-01  -2.044841e-01  -2.881574e-02   7.692956e-02   4.665036e-01  -3.786400e-02   1.264839e-02  -3.554931e-02   4.753546e-02   1.691179e-02  -3.887007e-03  -2.921888e-02   4.869562e-02  -2.578512e-02  -3.786400e-02   1.691179e-02  -2.578512e-02   3.009192e-02  -3.238409e-02   2.240431e-02  -1.744353e-02  -3.165215e-03  -2.629131e-02   1.359216e+01   1.286476e+05   1.286482e+05   1.286480e+05   2.779008e+00   2.779008e+00   9.647815e-02   8.542234e-02   4.484481e-02  -7.713771e+00   2.752511e+00  -9.269672e+00  -7.778326e+00  -6.093314e+00   1.995377e-01  -7.166394e-02   9.772661e-01  -2.342909e-01   9.649057e-01   1.185949e-01   9.514686e-01   2.526287e-01  -1.757449e-01  -9.651897e+04  -4.687388e+04   6.869686e+04  -5.357957e-01  -2.206344e-01  -8.150113e-01  -4.735698e-01  -7.206123e-01   5.064084e-01   6.990383e-01  -6.572962e-01  -2.816152e-01  -7.935388e-02   1.010926e-03   3.160563e-02  -7.225019e-01   3.628171e-01  -5.885191e-01  -6.143639e-01   5.349113e-02   7.872075e-01  -3.170929e-01  -9.303238e-01  -1.842543e-01
   1.487983e-02   1.487953e-02   4.887727e-03   1.573592e+03   6.840454e-01   3.869804e-01   3.446702e-01   2.683494e-01  -1.057941e-02   1.523989e-03   3.658067e-02  -2.588301e+01  -2.832866e+01  -7.707608e+00   6.528946e+00   1.643698e+00  -2.338159e+00   2.470146e+05   1.129739e+05  -2.600754e+04  -2.837896e+05  -1.523568e+05   6.537357e+04   2.470130e+05  -6.219966e+04  -1.713180e+05  -5.053755e+05   1.129733e+05  -5.765678e+05  -1.333958e+05   7.073149e+05  -2.600767e+04   2.470139e+05  -6.219989e+04  -1.713181e+05  -5.053758e+05   1.129743e+05  -5.765677e+05  -1.333959e+05   7.073149e+05  -2.600740e+04   9.629980e-01   2.406104e-02  -9.869030e-02  -2.137526e-02   8.550559e-01   1.378745e-01   1.495520e-01  -1.539923e-01   9.908285e-01   9.918249e-01   3.584612e-02  -1.224681e-01  -1.630866e-02   9.874715e-01   1.569526e-01   1.265599e-01  -1.536722e-01   9.799834e-01   9.744013e-01   8.688701e-01   1.004722e+00  -9.569714e-03   2.526708e-02  -1.965332e-02  -2.490603e-02  -1.222934e-01   5.245173e-03  -9.068082e-03   2.509736e-02  -1.853205e-02  -4.731809e-02   8.562549e-02  -3.437381e-02  -1.663258e-01   1.261564e-02  -9.746321e-03   2.212718e-02   1.532137e-03  -6.269465e-02   1.107159e-01  -2.458148e-02   2.152613e-02   1.101719e-02   4.883497e-02  -8.066867e-04   1.765043e-02  -1.240675e-02  -4.242805e-03  -9.966686e-03  -2.458148e-02  -8.066867e-04  -9.966686e-03   3.518055e-02  -6.947827e-04   6.703815e-03  -1.365442e-02   1.171197e-02   1.094662e-02   4.042141e+01   1.101635e+06   1.101634e+06   1.101634e+06   1.648057e+00   1.648057e+00   6.447719e-02   5.718763e-02   2.978060e-02  -2.063976e+01   2.302958e+01  -3.401496e+01  -2.048019e+01  -7.424127e+00   6.365143e-01  -7.644139e-01  -1.025717e-01   7.672427e-01   6.411348e-01  -1.687980e-02  -7.866544e-02   6.795315e-02  -9.945824e-01  -7.362539e+05   3.179095e+04   1.038444e+06  -2.747146e-01  -7.066110e-01   6.520987e-01  -8.081775e-01  -1.977492e-01  -5.547471e-01   5.209425e-01  -6.794087e-01  -5.167425e-01  -5.032866e-02  -1.019562e-02   2.516943e-02  -8.030232e-01   5.855057e-01  -1.110711e-01   1.736368e-01   5.158032e-02  -9.834581e-01  -5.700912e-01  -8.090257e-01  -1.430855e-01
   1.487983e-02   1.487953e-02   1.419031e-02   1.466120e+03   8.074921e-01   4.419299e-01   1.854146e-01   3.440841e-01   6.591126e-02  -1.582335e-02  -2.373958e-02  -7.042184e+00  -1.802468e+00  -4.178262e+00  -4.418417e-01   8.321269e-01   1.882381e-02   4.803317e+04   1.219602e+02   3.811320e+04   1.909353e+05  -4.007849e+05  -2.424624e+05   4.803226e+04   3.451254e+04  -9.917123e+05   3.473575e+05   1.216886e+02   1.104529e+05   1.901427e+05  -5.953770e+05   3.811371e+04   4.803277e+04   3.451257e+04  -9.917124e+05   3.473575e+05   1.218193e+02   1.104529e+05   1.901426e+05  -5.953770e+05   3.811402e+04   9.205575e-01   2.446733e-01   4.618531e-01   5.995879e-01   5.759103e-01  -3.028280e-01   2.613452e-01  -7.250511e-02   6.807580e-01   9.489813e-01  -2.427666e-01   2.012435e-01   2.920737e-01   9.172650e-01  -2.707726e-01  -1.188591e-01   3.157361e-01   9.413731e-01   1.017652e+00   4.459714e-01   8.157897e-01   4.090166e-01   2.689276e-01  -1.749562e-01   1.376165e-01  -3.016026e-01  -1.157777e-01   2.757979e-01   2.107516e-01  -5.537853e-02  -9.325460e-02   4.791052e-01  -1.134814e+01  -8.502507e+00  -1.593136e+01   9.947022e+00   1.354350e+01  -1.148101e+01  -1.192734e+01   2.389510e+01  -5.828548e-02   3.441674e-02   7.682654e-02  -2.383010e-02  -6.850910e-02   9.518293e-02  -3.183102e-02  -4.988707e-02   5.430177e-02  -5.828548e-02  -6.850910e-02   5.430177e-02   5.293321e-03   2.249776e-02   2.264793e-02   2.912342e-02   5.432878e-02   7.253500e-02   8.502969e+00   1.229606e+06   1.229605e+06   1.229605e+06   1.562201e+00   1.562201e+00   1.767931e-01   1.146018e-01   1.346188e-01  -4.340971e+00   4.676308e+00  -7.158283e+00  -4.088322e+00  -1.776309e+00   9.825421e-01   6.898077e-02  -1.727794e-01   1.742214e-01  -1.542050e-02   9.845858e-01  -6.525314e-02   9.974988e-01   2.716922e-02  -7.590008e+05   2.069854e+05   6.382837e+05   4.309148e-01  -6.706840e-01  -6.037346e-01   8.757673e-01   1.494988e-01   4.590008e-01   2.175869e-01   7.265213e-01  -6.517843e-01  -7.270508e-02  -6.253379e-02   6.274606e-02  -1.204542e-01   9.807710e-01  -1.535546e-01  -9.748858e-01  -8.767945e-02   2.047194e-01   1.873193e-01   1.743575e-01   9.667011e-01
