     VARIABLES=
              x              y              z      nomin_den    nomin_voidr      fabric_xx      fabric_yy      fabric_zz      fabric_xy      fabric_xz      fabric_yz       sigma_xx       sigma_yy       sigma_zz       sigma_xy       sigma_xz       sigma_yz    sigmaDot_xx    sigmaDot_yy    sigmaDot_zz    sigmaDot_xy    sigmaDot_xz    sigmaDot_yz       Oldro_xx       Oldro_xy       Oldro_xz       Oldro_yx       Oldro_yy       Oldro_yz       Oldro_zx       Oldro_zy       Oldro_zz       Trues_xx       Trues_xy       Trues_xz       Trues_yx       Trues_yy       Trues_yz       Trues_zx       Trues_zy       Trues_zz           F_xX           F_xY           F_xZ           F_yX           F_yY           F_yZ           F_zX           F_zY           F_zZ           R_xX           R_xY           R_xZ           R_yX           R_yY           R_yZ           R_zX           R_zY           R_zZ           U_xX           U_yY           U_zZ           U_xY           U_xZ           U_yZ       Green_xx       Green_yy       Green_zz       Green_xy       Green_xz       Green_yz      Green_vol      Green_shr       Euler_xx       Euler_yy       Euler_zz       Euler_xy       Euler_xz       Euler_yz      Euler_vol      Euler_shr           l_xx           l_xy           l_xz           l_yx           l_yy           l_yz           l_zx           l_zy           l_zz           d_xx           d_yy           d_zz           d_xy           d_xz           d_yz           w_xy           w_xz           w_yz     norm_sigma  norm_sigmaDot     norm_Oldro     norm_Trues         norm_F         norm_U         norm_l         norm_d         norm_w              p              q        sigma_1        sigma_2        sigma_3     sigma_1_v1     sigma_1_v2     sigma_1_v3     sigma_2_v1     sigma_2_v2     sigma_2_v3     sigma_3_v1     sigma_3_v2     sigma_3_v3     sigmaDot_1     sigmaDot_2     sigmaDot_3  sigmaDot_1_v1  sigmaDot_1_v2  sigmaDot_1_v3  sigmaDot_2_v1  sigmaDot_2_v2  sigmaDot_2_v3  sigmaDot_3_v1  sigmaDot_3_v2  sigmaDot_3_v3            d_1            d_2            d_3         d_1_v1         d_1_v2         d_1_v3         d_2_v1         d_2_v2         d_2_v3         d_3_v1         d_3_v2         d_3_v3
ZONE I=2, J=2, K=2, DATAPACKING=POINT, STRANDID=5, SOLUTIONTIME=35
   5.087436e-03   5.087438e-03   4.857829e-03   1.571546e+03   6.862373e-01   3.211701e-01   3.372849e-01   3.339114e-01  -3.136618e-02  -4.060086e-02  -3.584006e-03  -2.985310e+02  -2.817126e+02  -2.170778e+02   4.742300e+01   5.814045e+01   7.198275e+00  -1.272315e+05   4.917986e+04  -1.907547e+05   2.259873e+05   1.293589e+03   2.353272e+05  -1.272309e+05   3.572044e+05  -7.178809e+03   9.478030e+04   4.918881e+04  -1.909716e+04   9.756258e+03   4.897849e+05  -1.907561e+05  -1.272360e+05   3.572051e+05  -7.177821e+03   9.478118e+04   4.918399e+04  -1.909696e+04   9.757257e+03   4.897850e+05  -1.907599e+05   1.025604e+00  -7.317329e-03  -3.583397e-03   1.748974e-02   9.892096e-01   8.186838e-03   1.572247e-04  -1.733087e-02   1.017108e+00   9.999222e-01  -1.231347e-02  -1.968669e-03   1.233753e-02   9.998430e-01   1.272032e-02   1.811729e-03  -1.274362e-02   9.999172e-01   1.025741e+00   9.893652e-01   1.017135e+00   4.856248e-03  -1.639389e-03  -4.731966e-03   2.608514e-02  -1.055526e-02   1.729472e-02   4.896806e-03  -1.686024e-03  -4.751326e-03   1.094153e-02   2.353149e-02   2.462634e-02  -1.086833e-02   1.677772e-02   5.167962e-03  -1.497962e-03  -4.334664e-03   1.017858e-02   2.295998e-02   2.357036e-03   1.853794e-02  -7.800767e-03   3.863859e-04   1.574695e-02  -8.064297e-03   5.478508e-04   6.586124e-02  -1.008454e-03   2.357036e-03   1.574695e-02  -1.008454e-03   9.462161e-03  -3.626458e-03   2.889847e-02   9.075775e-03  -4.174309e-03  -3.696277e-02   4.764829e+02   6.572310e+05   6.572474e+05   6.572497e+05   1.750900e+00   1.750900e+00   7.114936e-02   4.615355e-02   5.414870e-02  -2.657738e+02   1.540531e+02  -3.566088e+02  -2.618597e+02  -1.788529e+02  -7.873997e-01   5.273884e-01   3.191600e-01   3.377623e-01   8.022152e-01  -4.923082e-01  -5.156727e-01  -2.798431e-01  -8.097960e-01  -5.808109e+05  -1.328578e+05   4.448624e+05  -1.129238e-01   6.203724e-01  -7.761355e-01  -9.836777e-01   4.033498e-02   1.753603e-01   1.400941e-01   7.832695e-01   6.056918e-01  -2.541628e-02   4.218663e-03   3.829315e-02   2.997006e-01  -5.933629e-01   7.470609e-01   9.416452e-01   5.819862e-02  -3.315376e-01  -1.532442e-01  -8.028284e-01  -5.761795e-01
   5.087436e-03   5.087438e-03   1.422367e-02   1.544290e+03   7.159990e-01   3.383362e-01   3.309899e-01   3.306740e-01  -3.777221e-02  -3.125955e-02   3.156984e-02  -1.221359e+02  -9.402013e+01  -1.066747e+02   3.444966e+01   2.544780e+01  -1.650492e+01   4.973556e+05  -3.040122e+05  -2.456310e+04   2.541486e+05   1.664234e+06   1.285149e+06   4.973524e+05  -3.542013e+05   3.290486e+06   8.625122e+05  -3.040121e+05   2.301147e+06   3.798372e+04   2.691514e+05  -2.457340e+04   4.973577e+05  -3.542028e+05   3.290485e+06   8.625108e+05  -3.040080e+05   2.301148e+06   3.798267e+04   2.691522e+05  -2.456881e+04   5.814421e-01  -6.009298e-01  -1.063918e+00  -8.858822e-02   4.943400e-01  -4.551388e-01   3.339819e-01   7.794398e-01   2.219938e+00   8.777384e-01  -2.697914e-01  -3.959644e-01   7.999723e-02   8.973236e-01  -4.340631e-01   4.724147e-01   3.493178e-01   8.091980e-01   6.610452e-01   8.779809e-01   2.415202e+00  -1.196945e-01   7.847999e-02   6.540932e-01  -2.712666e-01   1.065076e-01   2.633600e+00  -6.643990e-02   8.156624e-02   1.072328e+00   8.229469e-01   2.207708e+00  -4.517390e-01  -9.907316e-01   1.384110e-01  -4.217351e-01  -4.931482e-01  -3.696748e-01  -4.346866e-01   1.081156e+00  -1.187573e-02   1.686931e-02  -1.630400e-02   4.984747e-02   1.665671e-02   1.395300e-02   1.135375e-02   1.481458e-02  -4.783355e-02  -1.187573e-02   1.665671e-02  -4.783355e-02   3.335839e-02  -2.475124e-03   1.438379e-02  -1.648908e-02  -1.382887e-02  -4.307925e-04   1.983855e+02   4.172076e+06   4.172078e+06   4.172078e+06   2.817389e+00   2.817389e+00   7.927646e-02   7.319926e-02   3.044054e-02  -1.076103e+02   8.279528e+01  -1.616566e+02  -9.029602e+01  -7.087815e+01  -7.243828e-01   4.948475e-01   4.799953e-01  -4.319833e-01   2.168015e-01  -8.754356e-01  -5.372708e-01  -8.415005e-01   5.671859e-02  -9.037459e+05  -4.142650e+03   1.076669e+06  -5.052690e-01   8.310293e-01  -2.325803e-01   2.611664e-01  -1.096191e-01  -9.590494e-01   8.224934e-01   5.453200e-01   1.616498e-01  -5.401348e-02  -2.902030e-02   3.998121e-02  -3.127905e-01   3.289996e-01  -8.910226e-01  -7.862935e-01   4.365569e-01   4.372192e-01   5.328270e-01   8.373633e-01   1.221394e-01
   5.087436e-03   1.491253e-02   4.857829e-03   1.542327e+03   7.181825e-01   3.115841e-01   3.784736e-01   3.099423e-01  -5.003575e-06  -3.746097e-02   9.530896e-03  -1.863073e+02  -2.743635e+02  -1.463417e+02   7.947383e+00   4.140025e+01  -3.598314e+01  -6.223757e+03   4.871431e+05   3.165102e+05  -1.258418e+06  -4.319658e+05  -2.944702e+04  -6.218381e+03   5.292649e+04  -3.205288e+05  -2.569765e+06   4.871425e+05   2.330743e+05  -5.433923e+05  -2.919723e+05   3.165244e+05  -6.232925e+03   5.292733e+04  -3.205255e+05  -2.569764e+06   4.871210e+05   2.330717e+05  -5.433892e+05  -2.919753e+05   3.165130e+05   1.027785e+00   2.630191e-02   8.241301e-04   4.972658e-02   1.002163e+00   4.670275e-02   3.791690e-02  -7.037474e-03   1.027822e+00   9.997687e-01  -1.085223e-02  -1.856885e-02   1.134414e-02   9.995819e-01   2.659441e-02   1.827248e-02  -2.679891e-02   9.994738e-01   1.028804e+00   1.001647e+00   1.028508e+00   3.753591e-02   2.013461e-02   1.912976e-02   3.012613e-02   2.535806e-03   2.930046e-02   3.830000e-02   2.107062e-02   1.979608e-02   2.065413e-02   5.829947e-02   2.373246e-02   8.944088e-04   2.599053e-02   3.588890e-02   1.638927e-02   1.886442e-02   1.687247e-02   5.298095e-02   1.959981e-02  -1.419250e-02   2.600752e-02   1.433315e-02  -3.290326e-03   1.929989e-02   2.769209e-02  -2.213111e-02   6.175451e-02   1.959981e-02  -3.290326e-03   6.175451e-02   7.032423e-05   2.684981e-02  -1.415612e-03  -1.426283e-02  -8.422858e-04   2.071550e-02   3.709093e+02   2.735253e+06   2.735254e+06   2.735247e+06   1.767463e+00   1.767463e+00   8.319242e-02   7.519601e-02   3.558847e-02  -2.023375e+02   1.489645e+02  -2.875361e+02  -2.039276e+02  -1.155488e+02  -1.673616e-01   9.386539e-01   3.015278e-01  -8.637820e-01  -2.870391e-01   4.141125e-01   4.752585e-01  -1.911477e-01   8.588317e-01  -2.469876e+06   4.361502e+05   2.831155e+06   7.275443e-01   6.530299e-01   2.103123e-01   1.145633e-01   1.866050e-01  -9.757325e-01  -6.764278e-01   7.339826e-01   6.095018e-02  -3.357100e-03   6.589637e-03   7.483146e-02  -5.489661e-02   9.975077e-01   4.432462e-02  -8.977188e-01  -6.874192e-02   4.351730e-01   4.371354e-01  -1.590152e-02   8.992551e-01
   5.087436e-03   1.491253e-02   1.422367e-02   1.620661e+03   6.351355e-01   3.496671e-01   2.728067e-01   3.630335e-01   3.407548e-02  -4.374609e-03   1.561948e-02  -8.257740e+01  -1.273995e+02  -1.341803e+02  -1.294402e+01  -8.289116e+00  -2.503599e+01  -1.908319e+06  -1.649032e+05   2.652134e+05   5.299247e+05  -4.415417e+06   2.466007e+06  -1.908314e+06  -7.803406e+05  -8.572623e+06   1.840203e+06  -1.649113e+05   4.615101e+05  -2.582107e+05   4.470496e+06   2.652046e+05  -1.908311e+06  -7.803403e+05  -8.572623e+06   1.840203e+06  -1.649065e+05   4.615110e+05  -2.582103e+05   4.470497e+06   2.652097e+05   1.078315e+00   8.049654e-02  -1.481573e-01   8.751139e-02   9.487234e-01   3.829426e-02   1.716556e-01  -7.345944e-03   1.212127e+00   9.902635e-01  -3.782982e-04  -1.392052e-01   4.053494e-03   9.996506e-01   2.611872e-02   1.391467e-01  -2.642868e-02   9.899191e-01   1.092056e+00   9.485556e-01   1.221532e+00   8.253626e-02   2.210384e-02   6.302016e-03   9.994350e-02  -4.669516e-02   2.463339e-01   8.428187e-02   2.582965e-02   7.750146e-03   9.986075e-02   1.976434e-01   6.941509e-02  -6.535605e-02   1.656605e-01   7.825591e-02  -1.429982e-03   2.028982e-02   5.657318e-02   1.633138e-01   2.438812e-02   4.673906e-02  -1.200829e-02   9.634957e-03  -3.501095e-02   1.059903e-02   7.933783e-03  -3.026033e-02  -2.731458e-02   2.438812e-02  -3.501095e-02  -2.731458e-02   2.818701e-02  -2.037252e-03  -9.830649e-03   1.855205e-02  -9.971035e-03   2.042968e-02   2.069892e+02   1.007419e+07   1.007419e+07   1.007419e+07   1.897146e+00   1.897146e+00   7.796907e-02   6.600933e-02   4.149631e-02  -1.147191e+02   7.417124e+01  -1.608066e+02  -1.071912e+02  -7.615937e+01   2.499124e-01   6.579886e-01   7.103483e-01   1.909338e-01   6.857341e-01  -7.023625e-01  -9.492566e-01   3.111586e-01   4.574117e-02  -5.155202e+06  -1.362683e+06   4.709876e+06   4.345252e-01  -6.845596e-01   5.852914e-01   8.849413e-01   2.036254e-01  -4.188266e-01  -1.675315e-01  -6.999392e-01  -6.942754e-01  -4.947526e-02  -2.458621e-02   3.612407e-02  -3.241793e-01   8.754181e-01   3.585400e-01  -2.124487e-01   3.019553e-01  -9.293484e-01   9.218315e-01   3.774469e-01  -8.809378e-02
   1.491252e-02   5.087438e-03   4.857829e-03   1.628021e+03   6.277426e-01   3.950402e-01   3.332148e-01   2.717450e-01  -2.441294e-03   9.280414e-03  -2.075460e-02  -5.105768e+02  -2.779193e+02  -2.160886e+02  -5.010702e+01  -3.616057e+01   7.195136e+01   1.009998e+05   5.283630e+04  -1.791708e+05   3.059410e+05  -6.334360e+05   1.461263e+05   1.010029e+05  -1.625283e+05  -7.105625e+05   7.744217e+05   5.282821e+04   1.124976e+05  -5.563159e+05   1.797667e+05  -1.791649e+05   1.009983e+05  -1.625288e+05  -7.105629e+05   7.744213e+05   5.282569e+04   1.124982e+05  -5.563162e+05   1.797674e+05  -1.791669e+05   9.496603e-01  -2.505695e-02  -1.830916e-02   4.007516e-02   1.053056e+00   1.707670e-02  -4.958861e-02  -2.566021e-02   9.281139e-01   9.993250e-01  -3.301248e-02   1.611681e-02   3.264892e-02   9.992176e-01   2.232239e-02  -1.684112e-02  -2.178112e-02   9.996209e-01   9.511628e-01   1.053618e+00   9.278482e-01   9.773259e-03  -3.336974e-02  -2.547590e-03  -4.704017e-02   5.510676e-02  -6.898885e-02   9.839129e-03  -3.136350e-02  -2.687048e-03  -2.030742e-02   8.542918e-02  -5.675275e-02   4.975410e-02  -8.145136e-02   5.209990e-03  -4.077804e-02  -6.471395e-03  -2.948334e-02   9.376072e-02   4.392048e-03  -3.414734e-03  -1.404396e-02   1.133941e-02  -1.396361e-02   1.017104e-02  -3.699273e-03   1.353354e-02   1.861327e-02   4.392048e-03  -1.396361e-02   1.861327e-02   3.962337e-03  -8.871615e-03   1.185229e-02  -7.377071e-03  -5.172342e-03  -1.681254e-03   6.345659e+02   1.237166e+06   1.237172e+06   1.237172e+06   1.696513e+00   1.696513e+00   3.461926e-02   3.210126e-02   1.296155e-02  -3.348616e+02   3.117496e+02  -5.206789e+02  -3.225747e+02  -1.613311e+02   9.834189e-01   1.699069e-01   6.339507e-02  -1.031567e-01   8.116158e-01  -5.750117e-01  -1.491509e-01   5.589378e-01   8.156853e-01  -1.027599e+06   7.107146e+04   9.311927e+05  -6.410415e-01   5.487529e-01  -5.365968e-01   1.713658e-01  -5.791587e-01  -7.970000e-01  -7.481307e-01  -6.028643e-01   2.772273e-01  -1.967674e-02   3.613474e-03   2.510497e-02   2.739592e-01  -8.989758e-01   3.417440e-01  -8.985456e-01  -3.659360e-01  -2.422948e-01   3.428735e-01  -2.406937e-01  -9.080222e-01
   1.491252e-02   5.087438e-03   1.422367e-02   1.376338e+03   9.253996e-01   3.332388e-01   2.792037e-01   3.667242e-01   1.796536e-02   4.698349e-02   1.459132e-02  -3.545771e+01  -3.304772e+01  -6.159316e+01   1.604919e+00  -1.036762e+01  -7.563610e+00  -9.935714e+04  -2.446535e+04  -1.761848e+05  -2.566013e+04  -1.208662e+05  -1.809663e+04  -9.935563e+04  -1.474762e+04  -2.102411e+05  -3.656988e+04  -2.446643e+04   3.588415e+04  -3.148884e+04  -7.206939e+04  -1.761849e+05  -9.935509e+04  -1.474764e+04  -2.102410e+05  -3.656991e+04  -2.446594e+04   3.588426e+04  -3.148864e+04  -7.206927e+04  -1.761839e+05   1.276731e+00   2.067967e-03  -4.700270e-01  -4.391006e-02   8.440878e-01  -1.887201e-01  -1.309337e-01   1.937849e-01   8.031421e-01   9.855943e-01   3.458753e-02  -1.655522e-01  -7.260271e-02   9.706090e-01  -2.294494e-01   1.527504e-01   2.381635e-01   9.591379e-01   1.241527e+00   8.655032e-01   8.914397e-01  -2.964417e-02  -3.268741e-01  -8.151311e-03   3.245573e-01  -1.249795e-01  -4.921109e-02  -2.989835e-02  -3.484849e-01  -2.315740e-03   5.012224e-02   4.902546e-01   1.490082e-01  -1.684937e-01  -4.282287e-01   2.256762e-02  -2.735801e-01   3.451272e-02  -1.492381e-01   4.620609e-01   5.712263e-03  -2.512257e-02   4.966557e-02   3.039288e-02  -3.081330e-02   6.945682e-02  -5.202637e-02  -1.548197e-02   1.004507e-02   5.712263e-03  -3.081330e-02   1.004507e-02   2.635155e-03  -1.180397e-03   2.698742e-02  -2.775772e-02   5.084597e-02   4.246939e-02   8.060329e+01   3.078017e+05   3.077997e+05   3.077989e+05   1.816792e+00   1.816792e+00   1.134690e-01   5.055996e-02   1.015820e-01  -4.336620e+01   3.868226e+01  -6.849727e+01  -3.581010e+01  -2.579123e+01   3.594897e-01   1.862779e-01   9.143674e-01   6.434007e-01  -7.591931e-01  -9.829207e-02  -6.758718e-01  -6.236396e-01   3.927734e-01  -2.203859e+05  -8.889798e+04   9.276570e+03   3.387533e-01   3.798871e-01   8.607741e-01   9.154724e-01   7.807043e-02  -3.947345e-01   2.171555e-01  -9.217325e-01   3.213295e-01  -4.439801e-02   5.877608e-03   2.346444e-02  -5.748026e-02   8.939852e-01  -4.443945e-01   9.983249e-01   4.852999e-02  -3.150103e-02  -6.594994e-03  -4.454608e-01  -8.952772e-01
   1.491252e-02   1.491253e-02   4.857829e-03   1.560261e+03   6.984341e-01   3.746713e-01   3.612559e-01   2.640728e-01  -1.526203e-02  -5.032449e-02   2.608528e-02  -4.724075e+01  -4.718183e+01  -1.840002e+01   3.076122e+01  -3.311786e-01  -2.377344e+00  -1.012083e+04   1.035245e+04   6.706307e+04   6.873179e+03   4.740700e+03  -1.649161e+05  -1.012787e+04  -1.443243e+04   1.508050e+05   2.817576e+04   1.036011e+04   3.324158e+04  -1.413283e+05  -3.630670e+05   6.706506e+04  -1.012889e+04  -1.443177e+04   1.508050e+05   2.817643e+04   1.035910e+04   3.324152e+04  -1.413283e+05  -3.630671e+05   6.706466e+04   1.105593e+00  -3.565533e-03  -9.276583e-02   4.292858e-02   7.318239e-01   6.165287e-02  -1.752265e-01  -3.723637e-01   8.867820e-01   9.985691e-01  -4.491416e-02   2.902419e-02   3.575990e-02   9.643894e-01   2.620577e-01  -3.976072e-02  -2.606448e-01   9.646157e-01   1.112513e+00   8.029781e-01   8.688680e-01   3.741497e-02  -1.256875e-01  -1.675113e-01   1.274415e-01  -1.628832e-01  -1.006055e-01   4.636106e-02  -1.276511e-01  -1.423778e-01  -4.534908e-02   2.876981e-01   6.547203e-02  -5.256332e-01  -1.191560e-01  -2.281837e-02  -1.302566e-01  -2.483917e-01  -1.931057e-01   4.769887e-01  -5.897706e-02   2.385533e-02   6.543789e-03  -7.437254e-02   3.138920e-02   2.594963e-02  -2.612345e-02   4.074192e-02   4.916371e-02  -5.897706e-02   3.138920e-02   4.916371e-02  -2.525861e-02  -9.789832e-03   3.334578e-02   4.911393e-02   1.633362e-02  -7.396142e-03   8.185868e+01   4.258521e+05   4.258501e+05   4.258501e+05   1.651637e+00   1.651637e+00   1.266473e-01   1.028212e-01   7.394144e-02  -3.760753e+01   6.113914e+01  -7.830651e+01  -1.917982e+01  -1.533627e+01   7.068559e-01  -7.069943e-01  -2.266642e-02   3.389958e-01   3.104571e-01   8.880868e-01  -6.208354e-01  -6.354333e-01   4.591165e-01  -3.435606e+05  -2.635482e+04   4.372101e+05  -2.335152e-01  -6.871618e-01  -6.879530e-01  -9.344184e-01   3.542815e-01  -3.669991e-02   2.689478e-01   6.342660e-01  -7.248267e-01  -6.556896e-02   8.388575e-03   7.875624e-02   9.685125e-01   2.487500e-01   1.034416e-02  -1.828966e-01   7.390715e-01  -6.483225e-01  -1.689153e-01   6.260166e-01   7.612955e-01
   1.491252e-02   1.491253e-02   1.422367e-02   1.384187e+03   9.144806e-01   3.788129e-01   2.668538e-01   2.774102e-01   1.560323e-02  -2.202467e-02  -5.619051e-02  -5.559132e+00  -1.263758e+00  -2.009184e+00   1.751913e-01  -1.340814e+00  -1.021455e-01   3.564895e+04   1.975067e+04   1.250409e+04  -1.363433e+03  -5.790372e+04  -4.683158e+04   3.564910e+04   1.510821e+04  -1.122624e+05  -1.783533e+04   1.975082e+04   4.160194e+03  -3.544925e+03  -9.782304e+04   1.250450e+04   3.564812e+04   1.510824e+04  -1.122625e+05  -1.783530e+04   1.975059e+04   4.160183e+03  -3.545299e+03  -9.782307e+04   1.250414e+04   2.570700e-01   4.846259e-01   6.741489e-01   8.500127e-01   3.091470e-01  -9.364888e-01   4.766372e-01  -4.680544e-01   2.521638e+00   7.105842e-02   9.311096e-01   3.577509e-01   9.186148e-01   7.868115e-02  -3.872418e-01   3.887128e-01  -3.561520e-01   8.497400e-01   9.843762e-01   6.422624e-01   2.746561e+00   1.364850e-01   1.678243e-01  -3.440639e-01   7.894845e-03  -2.252454e-01   3.345072e+00   8.213474e-02   2.895912e-01  -5.715332e-01   1.042574e+00   2.424038e+00  -1.011220e+00  -5.062373e-02   2.429151e-01   3.316812e-01   4.567674e-01  -2.477811e-01  -2.729764e-01   1.039448e+00   3.609673e-03  -4.387810e-03   4.287677e-02  -4.416205e-02   4.379881e-02   9.420500e-02  -4.159633e-02   2.011131e-03   1.291782e-01   3.609673e-03   4.379881e-02   1.291782e-01  -2.427493e-02   6.402191e-04   4.810806e-02   1.988712e-02   4.223655e-02   4.609693e-02   6.435826e+00   1.567346e+05   1.567347e+05   1.567345e+05   3.042276e+00   3.042276e+00   1.817559e-01   1.562898e-01   9.278309e-02  -2.944025e+00   5.421407e+00  -6.547917e+00  -1.379124e+00  -9.050337e-01   9.064195e-01  -1.980745e-02   4.219140e-01  -1.944571e-01   8.671729e-01   4.584731e-01  -3.749536e-01  -4.976131e-01   7.821707e-01  -8.363971e+04   3.615441e+04   1.153890e+05   1.247366e-01   6.931808e-01   7.098881e-01   9.835122e-01   8.036234e-03  -1.806631e-01   1.309370e-01  -7.207190e-01   6.807494e-01  -1.173360e-02   3.690384e-02   1.514164e-01   8.333507e-01   5.219304e-01  -1.819762e-01   5.489141e-01  -7.427481e-01   3.834300e-01  -6.496130e-02   4.194210e-01   9.054646e-01
