     VARIABLES=
              x              y              z      nomin_den    nomin_voidr      fabric_xx      fabric_yy      fabric_zz      fabric_xy      fabric_xz      fabric_yz       sigma_xx       sigma_yy       sigma_zz       sigma_xy       sigma_xz       sigma_yz    sigmaDot_xx    sigmaDot_yy    sigmaDot_zz    sigmaDot_xy    sigmaDot_xz    sigmaDot_yz       Oldro_xx       Oldro_xy       Oldro_xz       Oldro_yx       Oldro_yy       Oldro_yz       Oldro_zx       Oldro_zy       Oldro_zz       Trues_xx       Trues_xy       Trues_xz       Trues_yx       Trues_yy       Trues_yz       Trues_zx       Trues_zy       Trues_zz           F_xX           F_xY           F_xZ           F_yX           F_yY           F_yZ           F_zX           F_zY           F_zZ           R_xX           R_xY           R_xZ           R_yX           R_yY           R_yZ           R_zX           R_zY           R_zZ           U_xX           U_yY           U_zZ           U_xY           U_xZ           U_yZ       Green_xx       Green_yy       Green_zz       Green_xy       Green_xz       Green_yz      Green_vol      Green_shr       Euler_xx       Euler_yy       Euler_zz       Euler_xy       Euler_xz       Euler_yz      Euler_vol      Euler_shr           l_xx           l_xy           l_xz           l_yx           l_yy           l_yz           l_zx           l_zy           l_zz           d_xx           d_yy           d_zz           d_xy           d_xz           d_yz           w_xy           w_xz           w_yz     norm_sigma  norm_sigmaDot     norm_Oldro     norm_Trues         norm_F         norm_U         norm_l         norm_d         norm_w              p              q        sigma_1        sigma_2        sigma_3     sigma_1_v1     sigma_1_v2     sigma_1_v3     sigma_2_v1     sigma_2_v2     sigma_2_v3     sigma_3_v1     sigma_3_v2     sigma_3_v3     sigmaDot_1     sigmaDot_2     sigmaDot_3  sigmaDot_1_v1  sigmaDot_1_v2  sigmaDot_1_v3  sigmaDot_2_v1  sigmaDot_2_v2  sigmaDot_2_v3  sigmaDot_3_v1  sigmaDot_3_v2  sigmaDot_3_v3            d_1            d_2            d_3         d_1_v1         d_1_v2         d_1_v3         d_2_v1         d_2_v2         d_2_v3         d_3_v1         d_3_v2         d_3_v3
ZONE I=2, J=2, K=2, DATAPACKING=POINT, STRANDID=5, SOLUTIONTIME=11
   5.027436e-03   5.027438e-03   4.797829e-03   1.559879e+03   6.988497e-01   4.246849e-01   2.575324e-01   2.844494e-01   6.101426e-02  -4.978789e-03   6.343284e-03  -3.020716e+00  -2.515271e+00  -2.244892e+00   3.492835e-01   3.548517e-01   6.614999e-01   5.047224e+04   7.582302e+02   8.869813e+03  -8.171452e+03   1.398463e+04   1.268542e+04   5.047215e+04   1.060138e+04   1.545980e+04  -2.694467e+04   7.582238e+02   3.197137e+04   1.250929e+04  -6.600362e+03   8.869737e+03   5.047228e+04   1.060138e+04   1.545979e+04  -2.694470e+04   7.583344e+02   3.197135e+04   1.250928e+04  -6.600404e+03   8.869836e+03   9.954948e-01  -5.755167e-03  -9.376721e-03   7.896123e-03   9.961881e-01   8.142145e-04  -1.217353e-02  -7.960133e-03   9.946574e-01   9.999754e-01  -6.878548e-03   1.375267e-03   6.872368e-03   9.999665e-01   4.448440e-03  -1.405820e-03  -4.438879e-03   9.999892e-01   9.955417e-01   9.962296e-01   9.946373e-01   1.102337e-03  -1.076920e-02  -3.536479e-03  -4.389788e-03  -3.756404e-03  -5.284081e-03   1.116844e-03  -1.071827e-02  -3.526265e-03  -4.476758e-03   1.312262e-02  -4.711855e-03  -3.830520e-03  -5.540230e-03   9.986592e-04  -1.090730e-02  -3.652446e-03  -4.694202e-03   1.336852e-02  -1.651910e-02  -4.652876e-02   3.505581e-02  -2.569259e-02  -1.541879e-02  -4.025055e-02  -6.155494e-02   4.969912e-02  -1.202296e-02  -1.651910e-02  -1.541879e-02  -1.202296e-02  -3.611068e-02  -1.324957e-02   4.724284e-03  -1.041809e-02   4.830537e-02  -4.497483e-02   4.709286e+00   7.018772e+04   7.018768e+04   7.018779e+04   1.724279e+00   1.724279e+00   1.121973e-01   6.048862e-02   9.449530e-02  -2.593626e+00   2.177275e+00  -3.525045e+00  -3.092032e+00  -1.163801e+00  -6.143036e-01   7.071356e-01  -3.501291e-01  -7.077442e-01  -2.975793e-01   6.407376e-01   3.488972e-01   6.414092e-01   6.832752e-01  -1.110479e+04   5.432931e+03   6.577214e+04  -3.900182e-01  -9.188902e-01  -5.938508e-02  -2.444571e-01   4.114883e-02   9.687866e-01   8.877649e-01  -3.923615e-01   2.406780e-01  -5.304978e-02  -1.549660e-02   2.458554e-02  -7.224232e-01  -6.736860e-01  -1.557301e-01   1.210295e-01  -3.449470e-01   9.307864e-01   6.807765e-01  -6.535738e-01  -3.307336e-01
   5.027436e-03   5.027438e-03   1.428367e-02   1.492439e+03   7.756168e-01   3.701924e-01   3.663643e-01   2.199651e-01   7.723697e-04   3.549831e-03   3.532781e-02  -6.305982e-01  -3.446469e-01  -6.028494e-02   2.304706e-01  -1.083337e-01   1.240056e-01  -3.136147e+03  -1.135769e+03  -1.985334e+03   1.089706e+04  -4.750758e+03   1.241791e+03  -3.136816e+03   1.389383e+04  -5.496213e+03   7.901361e+03  -1.136074e+03   1.461474e+03  -4.006365e+03   1.023032e+03  -1.985640e+03  -3.136427e+03   1.389374e+04  -5.496150e+03   7.901164e+03  -1.135860e+03   1.461375e+03  -4.006295e+03   1.022978e+03  -1.985603e+03   9.205064e-01  -7.359664e-02   2.294552e-02   3.596995e-02   9.279094e-01  -6.198668e-02   3.574081e-02   1.325734e-02   8.598300e-01   9.981674e-01  -6.009017e-02  -7.148943e-03   5.972638e-02   9.972754e-01  -4.329638e-02   9.731152e-03   4.279006e-02   9.990367e-01   9.213155e-01   9.303709e-01   8.615215e-01  -1.791209e-02   2.756836e-02  -2.640442e-02  -7.504840e-02  -6.669596e-02  -1.281618e-01  -1.694775e-02   2.481143e-02  -2.390384e-02  -8.996871e-02   5.871626e-02  -8.938059e-02  -7.959189e-02  -1.793406e-01  -2.307918e-02   3.986023e-02  -2.946153e-02  -1.161043e-01   8.953611e-02  -2.553758e-01   1.697756e-01  -1.243141e+00   3.118132e-01  -6.003892e-02   4.833371e-01  -2.892053e-01   8.354336e-01  -3.028111e-01  -2.553758e-01  -6.003892e-02  -3.028111e-01   2.407944e-01  -7.661730e-01   6.593853e-01  -7.101878e-02  -4.769676e-01  -1.760483e-01   8.360471e-01   1.788698e+04   1.788812e+04   1.788783e+04   1.568499e+00   1.568499e+00   1.687356e+00   1.523187e+00   7.259956e-01  -3.451767e-01   7.816117e-01  -8.626708e-01  -1.392392e-01  -3.362012e-02   8.248572e-01  -5.373667e-01   1.756350e-01   5.581259e-01   8.235108e-01  -1.016138e-01   9.003346e-02  -1.818433e-01  -9.791971e-01  -1.154780e+04  -1.011749e+03   6.302302e+03   7.237702e-01  -5.851269e-01   3.657640e-01  -1.095591e-01   4.258948e-01   8.981149e-01  -6.812881e-01  -6.901016e-01   2.441440e-01  -1.370189e+00   9.317632e-02   6.587869e-01  -5.696941e-01   4.506195e-01  -6.873068e-01  -6.723091e-01  -7.365249e-01   7.437448e-02   4.727040e-01  -5.044533e-01  -7.225495e-01
   5.027436e-03   1.497253e-02   4.797829e-03   1.537401e+03   7.236883e-01   3.201967e-01   2.496139e-01   4.089129e-01   2.873427e-02  -1.326840e-02  -3.417977e-02  -5.128400e+00  -3.779648e+00  -5.690583e+00  -1.007501e+00   1.498239e+00  -6.853731e-01  -4.997665e+03  -4.231767e+04  -1.872309e+03   2.022142e+05  -3.519884e+04  -5.265014e+03  -4.996643e+03  -3.266591e+04  -1.097098e+05   4.370953e+05  -4.231785e+04  -1.448947e+04   3.931217e+04   3.959677e+03  -1.872394e+03  -4.996865e+03  -3.266596e+04  -1.097097e+05   4.370953e+05  -4.231801e+04  -1.448949e+04   3.931224e+04   3.959639e+03  -1.872640e+03   1.001418e+00   1.132204e-02  -5.868831e-03   6.500681e-03   9.988014e-01   5.472783e-04   5.196272e-03   7.252125e-03   9.886672e-01   9.999817e-01   2.412448e-03  -5.553788e-03  -2.431035e-03   9.999915e-01  -3.342286e-03   5.545677e-03   3.355727e-03   9.999790e-01   1.001412e+00   9.988446e-01   9.886772e-01   8.933931e-03  -3.872252e-04   3.850812e-03   1.453210e-03  -1.107454e-03  -1.125124e-02   8.934332e-03  -3.681050e-04   3.825057e-03  -3.635161e-03   1.364950e-02   1.337026e-03  -1.369862e-03  -1.151906e-02   8.907336e-03  -3.347543e-04   4.014614e-03  -3.850633e-03   1.373585e-02   7.964204e-02   9.006686e-02  -7.826856e-03   1.881942e-02  -2.880667e-02  -4.639564e-04   1.842416e-02   4.154850e-02  -7.614675e-03   7.964204e-02  -2.880667e-02  -7.614675e-03   5.444314e-02   5.298652e-03   2.054227e-02   3.562372e-02  -1.312551e-02  -2.100623e-02   8.981502e+00   4.557911e+05   4.557916e+05   4.557915e+05   1.725743e+00   1.725743e+00   1.335068e-01   1.185702e-01   6.136106e-02  -4.866210e+00   4.214766e+00  -7.206396e+00  -5.042990e+00  -2.349245e+00   6.467859e-01  -9.223031e-03  -7.626159e-01  -5.266907e-01  -7.285985e-01  -4.378826e-01   5.516022e-01  -6.848789e-01   4.761049e-01  -4.624400e+05  -2.903992e+03   4.161564e+05   6.922493e-01  -7.197169e-01  -5.289998e-02  -1.710460e-02  -8.964616e-02   9.958268e-01  -7.214557e-01  -6.884556e-01  -7.436796e-02  -5.731570e-02  -3.210875e-03   1.037473e-01  -3.378962e-01   8.819879e-01  -3.285172e-01   2.311752e-01  -2.605794e-01  -9.373667e-01   9.123509e-01   3.926776e-01   1.158450e-01
   5.027436e-03   1.497253e-02   1.428367e-02   1.467831e+03   8.053844e-01   3.111890e-01   2.810167e-01   3.308712e-01   4.870948e-02   3.443428e-03  -6.013733e-02  -3.497476e+00  -4.105691e+00  -3.755575e-01  -1.436453e+00   2.643663e-01  -7.161402e-01  -4.264549e+04   7.879377e+05   1.875895e+05   1.517209e+06  -1.061962e+05   5.761744e+05  -4.264671e+04  -2.364347e+05  -9.697603e+05   3.270855e+06   7.879402e+05  -1.074492e+05   7.573691e+05   1.259800e+06   1.875897e+05  -4.264628e+04  -2.364345e+05  -9.697604e+05   3.270855e+06   7.879408e+05  -1.074491e+05   7.573691e+05   1.259800e+06   1.875897e+05   9.407874e-01   7.623868e-02  -8.491396e-02   1.499187e-02   9.787947e-01  -5.441229e-02   1.701946e-01  -7.154204e-02   1.055314e+00   9.916265e-01   2.851508e-02  -1.259518e-01  -2.702737e-02   9.995435e-01   1.350525e-02   1.262794e-01  -9.988011e-03   9.919444e-01   9.539965e-01   9.812364e-01   1.056773e+00   4.011175e-02   5.053215e-02  -6.734926e-02  -4.286410e-02  -1.551517e-02   6.192925e-02   3.711114e-02   4.945350e-02  -6.761575e-02   1.183325e-03   1.230139e-01  -6.575542e-02  -3.398369e-02   5.549369e-02   5.995574e-02   3.858920e-02  -6.150384e-02  -1.474847e-02   1.307383e-01  -3.697757e-01   3.901236e-01  -4.722007e-01   3.429975e-03   3.611140e-01  -3.216920e-01   3.787713e-02   1.592603e-01  -1.148719e-01  -3.697757e-01   3.611140e-01  -1.148719e-01   1.967768e-01  -2.171618e-01  -8.121586e-02   1.933468e-01  -2.550389e-01  -2.404761e-01   5.899529e+00   3.811158e+06   3.811159e+06   3.811160e+06   1.734099e+00   1.734099e+00   8.864530e-01   6.821185e-01   5.661388e-01  -2.659575e+00   4.433589e+00  -5.358501e+00  -2.353705e+00  -2.665192e-01   6.184511e-01   7.781072e-01   1.098517e-01   7.841423e-01  -6.019296e-01  -1.510022e-01   5.137290e-02  -1.795268e-01   9.824108e-01  -2.949277e+06  -3.108549e+05   4.193013e+06  -7.334044e-01   6.733525e-01  -9.335147e-02   2.957520e-01   1.924075e-01  -9.356870e-01   6.120856e-01   7.138458e-01   3.402578e-01  -5.148140e-01  -5.305853e-02   4.443389e-01  -8.809581e-01   1.565014e-01  -4.465648e-01   3.744146e-01  -3.465405e-01  -8.600717e-01  -2.893552e-01  -9.248875e-01   2.466913e-01
   1.497252e-02   5.027438e-03   4.797829e-03   1.676773e+03   5.804168e-01   2.191623e-01   2.381678e-01   4.315588e-01  -3.174883e-02  -6.260974e-03   1.058334e-02  -2.719228e-01  -7.648832e-01  -3.195093e-01  -2.589764e-01   1.089879e-01   2.473889e-01   3.333259e+03   2.034572e+03   7.924833e+03   3.593022e+03  -7.823113e+03   5.644088e+03   3.333133e+03   2.226920e+03  -1.104176e+04   4.958941e+03   2.034788e+03   4.909862e+01  -4.604250e+03   1.123924e+04   7.925071e+03   3.332939e+03   2.226824e+03  -1.104171e+04   4.958667e+03   2.034242e+03   4.934132e+01  -4.604145e+03   1.123935e+04   7.924843e+03   1.067351e+00  -5.425108e-02  -4.543493e-02  -3.254317e-03   1.062733e+00   1.510003e-02  -1.709156e-02   4.122175e-02   9.668638e-01   9.996274e-01  -2.364942e-02  -1.363057e-02   2.347442e-02   9.996417e-01  -1.285913e-02   1.392980e-02   1.253437e-02   9.998244e-01   1.066639e+00   1.064152e+00   9.671192e-01  -2.870962e-02  -3.159532e-02   2.828817e-02   6.977053e-02   6.702167e-02  -3.144101e-02  -3.103398e-02  -3.253469e-02   2.918401e-02   3.511706e-02   9.090429e-02   6.018869e-02   5.478806e-02  -3.734128e-02  -2.257449e-02  -2.882930e-02   2.623185e-02   2.587849e-02   8.192429e-02  -6.470795e-02  -2.100483e-01  -8.455996e-02   1.292376e-01   4.288510e-02  -1.682793e-01   2.217676e-01   3.703443e-01   7.354796e-01  -6.470795e-02   4.288510e-02   7.354796e-01  -4.040532e-02   6.860380e-02   1.010325e-01  -1.696430e-01  -1.531638e-01  -2.693118e-01   1.045253e+00   1.941772e+04   1.941777e+04   1.941751e+04   1.791843e+00   1.791843e+00   9.108146e-01   7.616100e-01   4.995332e-01  -4.521051e-01   8.944806e-01  -1.034206e+00  -2.731611e-01  -4.894865e-02   4.741228e-01   8.352976e-01  -2.783622e-01   8.168015e-02  -3.565207e-01  -9.307101e-01  -8.766618e-01   4.185342e-01  -2.372618e-01  -1.003866e+04   6.699660e+03   1.663167e+04   4.503991e-01  -7.004194e-01   5.536725e-01   8.911836e-01   3.902979e-01  -2.312125e-01   5.415150e-02  -5.975618e-01  -7.999922e-01  -9.014459e-02   4.914336e-02   7.546580e-01  -9.201311e-01  -3.721241e-01   1.219939e-01  -3.841641e-01   9.181803e-01  -9.676156e-02   7.600511e-02   1.358990e-01   9.878030e-01
   1.497252e-02   5.027438e-03   1.428367e-02   1.319469e+03   1.008383e+00   2.734309e-01   3.999854e-01   2.811292e-01   4.491766e-02  -5.215433e-02   3.692862e-02  -2.580916e+00  -1.930214e+00  -3.470448e-01  -1.344244e+00   9.546643e-04  -2.447424e-01  -1.680617e+04  -6.304709e+03   3.574417e+03  -4.521030e+04   2.379235e+04   1.485811e+04  -1.680678e+04  -3.209574e+04   4.231488e+04  -5.832644e+04  -6.305870e+03   3.800631e+03   5.268127e+03   2.591393e+04   3.574346e+03  -1.680623e+04  -3.209542e+04   4.231487e+04  -5.832618e+04  -6.305456e+03   3.800699e+03   5.268139e+03   2.591397e+04   3.574420e+03   1.081072e+00  -6.972372e-02   8.247620e-02   3.723888e-02   1.004841e+00   7.419706e-03  -1.428474e-01   5.754832e-02   8.853637e-01   9.920682e-01  -5.088285e-02   1.149421e-01   5.369338e-02   9.983263e-01  -2.148732e-02  -1.136564e-01   2.748852e-02   9.931398e-01   1.090732e+00   1.008288e+00   8.886105e-01  -2.175814e-02  -1.840686e-02   2.754800e-02   9.525440e-02   8.938848e-03  -1.046369e-01  -2.308892e-02  -1.851644e-02   2.632814e-02  -1.478721e-04   1.244732e-01   7.294986e-02   3.167473e-03  -1.264148e-01  -9.731294e-03  -4.445774e-02   3.531501e-02  -1.676581e-02   1.344267e-01  -1.025092e-01  -2.833947e-02  -5.644514e-03  -1.197436e-01  -2.140998e-01  -2.568351e-02  -1.740202e-01  -2.910618e-01   1.021153e-01  -1.025092e-01  -2.140998e-01   1.021153e-01  -7.404155e-02  -8.983237e-02  -1.583726e-01   4.570208e-02   8.418785e-02   1.326891e-01   3.781293e+00   8.527224e+04   8.527248e+04   8.527206e+04   1.731795e+00   1.731795e+00   4.445307e-01   3.795289e-01   2.314419e-01  -1.619391e+00   2.898892e+00  -3.509475e+00  -1.023461e+00  -3.252381e-01   7.919931e-01   6.087350e-01   4.678268e-02   6.082911e-01  -7.802124e-01  -1.457757e-01   5.223835e-02  -1.439108e-01   9.882109e-01  -7.600315e+04   4.080707e+03   5.238598e+04  -6.885640e-01  -6.748776e-01   2.653676e-01   4.150220e-01  -6.665434e-02   9.073665e-01  -5.946734e-01   7.349132e-01   3.259848e-01  -3.279457e-01  -6.586701e-02   1.793191e-01   4.238119e-01   8.176599e-01   3.896354e-01   8.819514e-01  -4.705046e-01   2.805493e-02  -2.062646e-01  -3.317495e-01   9.205418e-01
   1.497252e-02   1.497253e-02   4.797829e-03   1.446779e+03   8.316552e-01   2.903155e-01   3.047653e-01   3.678821e-01   5.128578e-03  -2.010225e-02   4.698191e-02  -7.451832e-01  -1.220295e+00  -1.339941e+00   3.479071e-01  -6.789071e-02  -5.773084e-01   4.552409e+03  -2.054245e+04   3.249989e+04  -4.536598e+04  -5.600200e+04   1.594870e+05   4.551919e+03  -3.185802e+04  -9.871622e+04  -5.887313e+04  -2.054252e+04  -2.036182e+04  -1.328782e+04   3.393358e+05   3.250023e+04   4.551925e+03  -3.185802e+04  -9.871623e+04  -5.887313e+04  -2.054251e+04  -2.036182e+04  -1.328782e+04   3.393358e+05   3.250025e+04   1.177924e+00   2.232288e-02  -8.370051e-02   2.125695e-02   9.350407e-01   2.580833e-02   1.218589e-01  -1.309828e-01   1.022050e+00   9.956055e-01   2.685922e-03  -9.360772e-02   4.875808e-03   9.967460e-01   8.045879e-02   9.351922e-02  -8.056163e-02   9.923527e-01   1.184248e+00   9.426102e-01   1.024146e+00   1.453445e-02   1.237449e-02  -5.683850e-02   2.014037e-01  -5.402205e-02   2.612935e-02   1.510468e-02   1.325082e-02  -5.580381e-02   5.783700e-02   1.656599e-01   1.401524e-01  -7.763030e-02   3.009397e-02   2.013742e-02   2.015615e-02  -5.119964e-02   3.087202e-02   1.427864e-01  -1.788269e-01   2.782963e-01  -2.193760e-01   1.041405e-01  -1.017176e-01   2.160268e-01  -2.178235e-02  -3.310439e-01   2.726760e-01  -1.788269e-01  -1.017176e-01   2.726760e-01   1.912184e-01  -1.205792e-01  -5.750854e-02   8.707792e-02  -9.879682e-02   2.735353e-01   2.187476e+00   3.625808e+05   3.625808e+05   3.625808e+05   1.829487e+00   1.829487e+00   6.401795e-01   4.748682e-01   4.293366e-01  -1.101806e+00   1.308168e+00  -1.870758e+00  -1.073658e+00  -3.610030e-01   7.689368e-02  -6.851045e-01  -7.243750e-01  -7.256424e-01   4.597917e-01  -5.118932e-01   6.837620e-01   5.649986e-01  -4.617858e-01  -3.378442e+05   8.821066e+02   3.534719e+05  -1.004336e-01  -7.353635e-01   6.701893e-01  -9.847910e-01  -2.251051e-02  -1.722789e-01   1.417739e-01  -6.772989e-01  -7.219185e-01  -3.409495e-01   2.556064e-03   3.305249e-01  -7.887358e-01   6.068519e-01  -9.811510e-02  -5.285550e-01  -7.509683e-01  -3.958235e-01   3.138876e-01   2.603409e-01  -9.130702e-01
   1.497252e-02   1.497253e-02   1.428367e-02   1.282782e+03   1.065822e+00   3.771807e-01   3.231912e-01   2.996281e-01  -4.640515e-02  -5.849995e-02  -1.042992e-01   1.533259e-02  -6.358052e-01  -4.647940e-01   1.330051e-01  -1.446517e-01   1.524509e-01   1.910411e+03  -1.328394e+03  -3.654505e+02   8.088255e+03  -1.848326e+04   9.349211e+03   1.910208e+03   9.453870e+03  -3.554211e+04   6.723175e+03  -1.327361e+03   1.360163e+04  -1.424989e+03   5.095802e+03  -3.656662e+02   1.910206e+03   9.453854e+03  -3.554210e+04   6.723150e+03  -1.327265e+03   1.360160e+04  -1.424955e+03   5.095785e+03  -3.655960e+02   1.119263e+00  -3.124974e-02  -5.139741e-01  -5.193613e-02   8.947117e-01   2.739717e-01   2.748004e-03   2.290709e-01   1.533883e+00   9.804846e-01   3.363938e-02  -1.936967e-01  -3.139871e-02   9.993999e-01   1.462722e-02   1.940725e-01  -8.259939e-03   9.809524e-01   1.099585e+00   8.912315e-01   1.608228e+00  -1.427632e-02  -2.148616e-01   2.438478e-01   1.277278e-01  -7.302047e-02   8.460131e-01  -4.040753e-02  -2.926432e-01   3.062776e-01   3.002401e-01   7.434647e-01   1.019722e-01  -1.988242e-01   2.037233e-01  -1.166046e-02  -1.281067e-01   1.777590e-01   3.562378e-02   3.501586e-01  -2.916758e-01   3.707720e-01  -3.925500e-01  -1.138985e+00   5.567559e-01  -7.383167e-02   1.712889e-01  -3.985028e-01  -4.160394e-01  -2.916758e-01   5.567559e-01  -4.160394e-01  -3.841063e-01  -1.106306e-01  -2.361673e-01   7.548783e-01  -2.819194e-01   1.623356e-01   8.718417e-01   4.020395e+04   4.020404e+04   4.020400e+04   2.191219e+00   2.191219e+00   1.533163e+00   9.996220e-01   1.162474e+00  -3.617556e-01   7.794277e-01  -7.744347e-01  -4.288651e-01   1.180332e-01   3.078282e-01  -7.958934e-01   5.213401e-01   1.820829e-01   5.870992e-01   7.887714e-01   9.338563e-01   1.478790e-01  -3.256443e-01  -9.354772e+03   1.733519e+03   7.837820e+03  -4.921727e-01   7.214947e-01  -4.870436e-01   5.373792e-01  -1.883402e-01  -8.220411e-01  -6.848281e-01  -6.663133e-01  -2.950204e-01  -6.282849e-01  -2.566060e-01   7.339316e-01   6.217816e-01   3.419565e-01   7.045945e-01  -7.097352e-01  -1.343757e-01   6.915338e-01   3.311549e-01  -9.300586e-01   1.591462e-01
