     VARIABLES=
              x              y              z      nomin_den    nomin_voidr      fabric_xx      fabric_yy      fabric_zz      fabric_xy      fabric_xz      fabric_yz       sigma_xx       sigma_yy       sigma_zz       sigma_xy       sigma_xz       sigma_yz    sigmaDot_xx    sigmaDot_yy    sigmaDot_zz    sigmaDot_xy    sigmaDot_xz    sigmaDot_yz       Oldro_xx       Oldro_xy       Oldro_xz       Oldro_yx       Oldro_yy       Oldro_yz       Oldro_zx       Oldro_zy       Oldro_zz       Trues_xx       Trues_xy       Trues_xz       Trues_yx       Trues_yy       Trues_yz       Trues_zx       Trues_zy       Trues_zz           F_xX           F_xY           F_xZ           F_yX           F_yY           F_yZ           F_zX           F_zY           F_zZ           R_xX           R_xY           R_xZ           R_yX           R_yY           R_yZ           R_zX           R_zY           R_zZ           U_xX           U_yY           U_zZ           U_xY           U_xZ           U_yZ       Green_xx       Green_yy       Green_zz       Green_xy       Green_xz       Green_yz      Green_vol      Green_shr       Euler_xx       Euler_yy       Euler_zz       Euler_xy       Euler_xz       Euler_yz      Euler_vol      Euler_shr           l_xx           l_xy           l_xz           l_yx           l_yy           l_yz           l_zx           l_zy           l_zz           d_xx           d_yy           d_zz           d_xy           d_xz           d_yz           w_xy           w_xz           w_yz     norm_sigma  norm_sigmaDot     norm_Oldro     norm_Trues         norm_F         norm_U         norm_l         norm_d         norm_w              p              q        sigma_1        sigma_2        sigma_3     sigma_1_v1     sigma_1_v2     sigma_1_v3     sigma_2_v1     sigma_2_v2     sigma_2_v3     sigma_3_v1     sigma_3_v2     sigma_3_v3     sigmaDot_1     sigmaDot_2     sigmaDot_3  sigmaDot_1_v1  sigmaDot_1_v2  sigmaDot_1_v3  sigmaDot_2_v1  sigmaDot_2_v2  sigmaDot_2_v3  sigmaDot_3_v1  sigmaDot_3_v2  sigmaDot_3_v3            d_1            d_2            d_3         d_1_v1         d_1_v2         d_1_v3         d_2_v1         d_2_v2         d_2_v3         d_3_v1         d_3_v2         d_3_v3
ZONE I=2, J=2, K=2, DATAPACKING=POINT, STRANDID=5, SOLUTIONTIME=18
   5.044936e-03   5.044938e-03   4.815329e-03   1.536551e+03   7.246420e-01   3.353479e-01   3.040161e-01   3.106360e-01  -2.216132e-02   9.835670e-03  -1.832404e-02  -2.317033e+00  -4.290948e+00  -3.269534e+00   2.429200e-01   2.788275e-01   9.171451e-01   7.469520e+02  -1.371204e+04  -5.355916e+02   1.914370e+04   4.934243e+04   5.674087e+04   7.470237e+02   1.199778e+04   6.018137e+04   2.628952e+04  -1.371216e+04   6.872449e+04   3.850364e+04   4.475715e+04  -5.353563e+02   7.469364e+02   1.199778e+04   6.018138e+04   2.628953e+04  -1.371232e+04   6.872450e+04   3.850365e+04   4.475721e+04  -5.354795e+02   1.007150e+00  -7.755046e-03  -1.288498e-01   2.337038e-02   9.998375e-01  -1.305520e-02  -2.908957e-02  -2.158662e-02   8.734411e-01   9.984565e-01  -1.601276e-02  -5.318010e-02   1.630253e-02   9.998545e-01   5.019462e-03   5.309198e-02  -5.878685e-03   9.985723e-01   1.004432e+00   9.999431e-01   8.789809e-01   7.410730e-03  -8.249106e-02  -1.612474e-02   7.871606e-03   1.005368e-04  -1.101639e-01   8.092015e-03  -7.774211e-02  -1.545424e-02  -3.406393e-02   1.194803e-01   2.300952e-03  -6.092027e-04  -1.722538e-01   5.592634e-03  -9.201926e-02  -2.101660e-02  -5.685403e-02   1.588730e-01   1.468044e-02  -1.415919e-02   5.720281e-03   6.850236e-03  -1.111729e-02   1.281789e-02   2.500377e-02  -1.418745e-02   3.413045e-02   1.468044e-02  -1.111729e-02   3.413045e-02  -3.654478e-03   1.536203e-02  -6.847830e-04  -1.050471e-02  -9.641745e-03   1.350267e-02   6.114328e+00   1.133778e+05   1.133779e+05   1.133779e+05   1.672010e+00   1.672010e+00   5.267730e-02   4.476191e-02   2.777173e-02  -3.292505e+00   3.355198e+00  -5.464954e+00  -2.667584e+00  -1.744977e+00  -1.847466e-02   8.085687e-01  -5.881117e-01  -7.865535e-01   3.513798e-01   5.078049e-01   6.172457e-01   4.719629e-01   6.294909e-01  -5.327227e+04  -2.968126e+04   6.945285e+04   1.693852e-01   6.869552e-01  -7.066833e-01  -8.108891e-01   5.046835e-01   2.962322e-01   5.601496e-01   5.228644e-01   6.425304e-01  -1.168056e-02   6.683050e-03   4.269110e-02   1.592923e-01   9.864738e-01  -3.867043e-02  -8.599916e-01   1.578912e-01   4.852677e-01   4.848096e-01  -4.404314e-02   8.735101e-01
   5.044936e-03   5.044938e-03   1.426617e-02   1.626487e+03   6.292779e-01   3.339443e-01   3.257343e-01   2.968431e-01  -5.465763e-02   6.315939e-02   2.412005e-02  -2.610485e+00  -8.583686e-01  -1.530609e+00   9.677851e-02  -5.716409e-01  -5.406454e-02  -6.890740e+03  -2.714454e+03  -7.174515e+03   3.224498e+04  -2.118172e+04  -7.063978e+03  -6.890541e+03   2.738999e+04  -1.856711e+04   3.709987e+04  -2.714461e+03  -6.856155e+03  -2.379618e+04  -7.271883e+03  -7.174633e+03  -6.890497e+03   2.738999e+04  -1.856710e+04   3.709987e+04  -2.714447e+03  -6.856154e+03  -2.379617e+04  -7.271882e+03  -7.174607e+03   8.346166e-01  -3.614059e-02  -3.791353e-02   4.346092e-02   9.772938e-01  -1.179007e-01   4.518244e-02   1.898517e-02   1.248911e+00   9.981566e-01  -4.623782e-02  -3.931235e-02   4.373971e-02   9.971053e-01  -6.219175e-02   4.207417e-02   6.035759e-02   9.972897e-01   8.368801e-01   9.772818e-01   1.254349e+00   7.471359e-03   9.546324e-03  -4.042512e-02  -1.497424e-01  -2.161509e-02   2.875588e-01   6.584172e-03   9.830761e-03  -4.507132e-02   3.873377e-02   2.651062e-01  -2.150638e-01  -2.051787e-02   1.764816e-01   3.413383e-03  -4.450005e-03  -4.220372e-02  -1.970000e-02   2.313441e-01   5.319928e-02   4.700802e-03  -6.810775e-02  -1.344674e-02  -4.908914e-03  -1.277192e-02   7.139790e-02  -3.770684e-03  -6.518131e-02   5.319928e-02  -4.908914e-03  -6.518131e-02  -4.372970e-03   1.645077e-03  -8.271300e-03   9.073772e-03  -6.975282e-02  -4.500617e-03   3.265122e+00   5.695464e+04   5.695453e+04   5.695451e+04   1.797888e+00   1.797888e+00   1.312229e-01   8.534255e-02   9.967994e-02  -1.666488e+00   2.005970e+00  -2.975362e+00  -1.249623e+00  -7.744779e-01   8.970182e-01  -1.024253e-01   4.299622e-01   3.701049e-01  -3.577205e-01  -8.573555e-01  -2.416212e-01  -9.281945e-01   2.829737e-01  -4.649136e+04  -1.248077e+04   4.219242e+04   7.437151e-01  -5.731180e-01   3.441274e-01   2.384521e-02   5.371936e-01   8.431218e-01   6.680713e-01   6.188366e-01  -4.131851e-01  -6.630498e-02  -4.155829e-03   5.356986e-02  -8.780244e-03   1.328948e-01   9.910913e-01  -7.911776e-02  -9.881146e-01   1.317947e-01   9.968266e-01  -7.725573e-02   1.919023e-02
   5.044936e-03   1.495503e-02   4.815329e-03   1.548273e+03   7.115845e-01   2.747283e-01   3.124065e-01   3.531637e-01   3.554763e-02  -1.494035e-03  -5.129321e-03  -4.269976e+00  -3.148402e+00  -6.299931e+00  -1.080676e+00   2.424964e-01  -1.251105e+00  -1.315245e+04   1.262236e+04   9.540854e+03  -1.714268e+04  -2.401261e+04   2.764926e+04  -1.315251e+04  -5.435542e+04  -9.397057e+04   2.007002e+04   1.262228e+04   1.976993e+05   4.594525e+04  -1.424009e+05   9.540896e+03  -1.315244e+04  -5.435540e+04  -9.397058e+04   2.007004e+04   1.262233e+04   1.976993e+05   4.594525e+04  -1.424009e+05   9.541000e+03   1.005598e+00   1.450806e-02  -7.235365e-03   1.687294e-02   9.982347e-01   5.004962e-03   1.092197e-02   7.729229e-03   9.896500e-01   9.999581e-01  -1.158359e-03  -9.085255e-03   1.146549e-03   9.999985e-01  -1.304966e-03   9.086753e-03   1.294494e-03   9.999579e-01   1.005674e+00   9.982264e-01   9.896675e-01   1.572221e-02   1.763382e-03   6.294432e-03   5.815418e-03  -1.628638e-03  -1.025776e-02   1.575842e-02   1.808755e-03   6.270193e-03  -2.023660e-03   2.177517e-02   5.189064e-03  -2.188949e-03  -1.051245e-02   1.557099e-02   1.783235e-03   6.526615e-03  -2.504111e-03   2.160066e-02  -8.736266e-03   7.039320e-03  -6.842750e-03  -1.141263e-03  -1.381216e-02   1.189440e-03   6.879654e-04  -1.395096e-02   6.146454e-03  -8.736266e-03  -1.381216e-02   6.146454e-03   2.949029e-03  -3.077392e-03  -6.380762e-03   4.090292e-03  -3.765358e-03   7.570202e-03   8.584449e+00   2.721858e+05   2.721858e+05   2.721858e+05   1.728542e+00   1.728542e+00   2.447595e-02   2.055819e-02   1.328280e-02  -4.572770e+00   3.634674e+00  -6.585921e+00  -4.734114e+00  -2.398275e+00   1.002021e-01   2.916111e-01   9.512741e-01  -8.850406e-01  -4.107136e-01   2.191288e-01   4.546016e-01  -8.638734e-01   2.169333e-01  -1.477202e+05   1.218400e+03   1.555126e+05   3.306495e-01  -6.494871e-01  -6.847170e-01   9.371638e-01   3.115514e-01   1.570344e-01  -1.113327e-01   6.936153e-01  -7.116901e-01  -1.623747e-02  -8.997690e-03   8.833197e-03   2.734692e-01  -9.342893e-01  -2.287313e-01  -9.381836e-01  -2.066224e-01  -2.777025e-01   2.121935e-01   2.905351e-01  -9.330398e-01
   5.044936e-03   1.495503e-02   1.426617e-02   1.489433e+03   7.792009e-01   3.679389e-01   2.674991e-01   3.228954e-01   2.859287e-02  -5.323033e-03   3.758393e-02  -3.675705e+00  -4.027995e+00  -4.602272e-01  -1.836270e+00   2.284939e-02  -8.199364e-01  -7.638527e+03  -1.957445e+04  -1.023701e+04  -7.775222e+04  -1.575161e+04  -2.127349e+04  -7.638427e+03  -4.625996e+04  -2.844262e+04  -1.092440e+05  -1.957447e+04   9.171092e+03  -3.060986e+03  -5.171869e+04  -1.023712e+04  -7.638209e+03  -4.625983e+04  -2.844262e+04  -1.092440e+05  -1.957423e+04   9.171151e+03  -3.060984e+03  -5.171865e+04  -1.023709e+04   9.764285e-01   1.288916e-01  -1.568615e-01   1.180159e-02   9.881791e-01  -3.783090e-02   2.321656e-01  -6.967105e-02   1.090947e+00   9.814470e-01   5.594413e-02  -1.833905e-01  -5.182814e-02   9.982865e-01   2.716443e-02   1.845959e-01  -1.715566e-02   9.826648e-01   1.000558e+00   9.948918e-01   1.099775e+00   6.242385e-02   4.939390e-02  -6.525747e-02   3.726350e-03  -1.017499e-03   1.081012e-01   6.067017e-02   4.983500e-02  -6.680463e-02   3.693667e-02   1.387139e-01  -1.544783e-02  -2.824697e-02   9.452437e-02   7.918222e-02   2.603444e-02  -4.837090e-02   1.694319e-02   1.358550e-01   1.249058e-02   2.798061e-03   3.637239e-02   6.104405e-02  -3.704816e-02   3.392499e-02  -3.349036e-02  -5.010478e-02  -3.460158e-02   1.249058e-02  -3.704816e-02  -3.460158e-02   3.192106e-02   1.441018e-03  -8.089899e-03  -2.912299e-02   3.493138e-02   4.201488e-02   6.192344e+00   1.348995e+05   1.348993e+05   1.348992e+05   1.794887e+00   1.794887e+00   1.120982e-01   6.999145e-02   8.756255e-02  -2.721309e+00   4.416471e+00  -5.406625e+00  -2.424380e+00  -3.329225e-01   6.512884e-01   7.521887e-01   1.001776e-01   7.545103e-01  -6.278461e-01  -1.911112e-01   8.085553e-02  -2.000535e-01   9.764430e-01  -1.360142e+05  -7.401018e+03   1.059652e+05  -6.201936e-01  -7.200859e-01  -3.111851e-01  -4.255391e-01  -2.442021e-02   9.046105e-01  -6.589965e-01   6.934551e-01  -2.912795e-01  -5.565502e-02  -3.171189e-02   2.820776e-02   4.031143e-01  -8.446774e-01  -3.521632e-01   1.867343e-01  -3.007983e-01   9.352276e-01   8.958957e-01   4.427646e-01  -3.647418e-02
   1.495502e-02   5.044938e-03   4.815329e-03   1.591562e+03   6.650308e-01   3.054272e-01   2.728906e-01   2.940227e-01  -3.137923e-02   5.819125e-02   2.349429e-03  -1.245789e+01  -7.474223e+00  -8.313459e+00  -5.350905e+00  -4.839971e+00  -1.134363e+00  -1.430530e+05   2.324921e+05   1.220099e+05   1.222993e+06   7.119765e+05   4.471394e+05  -1.430530e+05   1.864209e+05   1.224195e+06   2.259565e+06   2.324919e+05  -1.886607e+05   1.997573e+05   1.082939e+06   1.220099e+05  -1.430525e+05   1.864211e+05   1.224196e+06   2.259565e+06   2.324922e+05  -1.886607e+05   1.997575e+05   1.082939e+06   1.220102e+05   9.995681e-01   6.809635e-03  -9.815075e-03   4.311622e-02   1.055643e+00   3.291437e-02   5.712614e-02   2.391929e-02   9.544739e-01   9.992736e-01  -1.704834e-02  -3.408343e-02   1.720816e-02   9.998422e-01   4.401078e-03   3.400302e-02  -4.984394e-03   9.994093e-01   1.001526e+00   1.055242e+00   9.543894e-01   2.578369e-02   2.321344e-02   2.831903e-02   2.129430e-03   5.750072e-02  -4.389997e-02   2.684423e-02   2.306686e-02   2.875467e-02   5.243392e-03   7.880204e-02  -2.614112e-03   5.007648e-02  -4.964810e-02   2.115507e-02   2.494642e-02   2.797203e-02  -7.285787e-04   7.608074e-02  -2.863045e-02   5.741233e-02   1.445507e-02   1.123729e-02  -1.642039e-02  -7.871651e-03  -1.235156e-02  -8.169063e-03   6.381056e-03  -2.863045e-02  -1.642039e-02   6.381056e-03   3.432481e-02   1.051755e-03  -8.020357e-03   2.308752e-02   1.340332e-02   1.487059e-04   1.970567e+01   2.824304e+06   2.824305e+06   2.824305e+06   1.741109e+00   1.741109e+00   7.101203e-02   6.014399e-02   3.775459e-02  -9.415192e+00   1.230748e+01  -1.738081e+01  -7.136208e+00  -3.728555e+00   7.986882e-01   4.059988e-01   4.441420e-01   7.760961e-02   6.624242e-01  -7.450979e-01  -5.967193e-01   6.295706e-01   4.975610e-01  -2.371603e+06  -8.059001e+04   2.663642e+06  -6.791510e-01   6.915710e-01  -2.459339e-01   4.200544e-01   9.143139e-02  -9.028813e-01   6.019204e-01   7.164983e-01   3.525932e-01  -5.794427e-02   3.554128e-03   1.572036e-02  -7.585515e-01   6.449683e-01   9.282015e-02  -4.018004e-01  -3.508291e-01  -8.458578e-01  -5.129875e-01  -6.789219e-01   5.252704e-01
   1.495502e-02   5.044938e-03   1.426617e-02   1.313394e+03   1.017673e+00   2.206656e-01   3.332087e-01   3.627924e-01   3.216251e-02   3.154179e-02  -3.386935e-02  -2.125367e+00  -1.605334e+00  -6.440202e-02  -1.179807e+00  -1.158591e-02   4.944522e-02  -1.655131e+04  -8.374771e+03  -9.029430e+02  -3.621933e+04  -6.892820e+03   6.340173e+03  -1.655143e+04  -3.246389e+04  -1.263584e+04  -3.997488e+04  -8.374677e+03  -1.958075e+02  -1.149851e+03   1.287607e+04  -9.029497e+02  -1.655133e+04  -3.246384e+04  -1.263584e+04  -3.997482e+04  -8.374600e+03  -1.958101e+02  -1.149851e+03   1.287606e+04  -9.029466e+02   1.122178e+00  -1.641649e-01   5.798867e-02   8.969778e-02   8.933095e-01  -6.547428e-02  -1.968143e-01   1.619234e-01   8.025131e-01   9.839366e-01  -1.138434e-01   1.375079e-01   1.300117e-01   9.848259e-01  -1.149558e-01  -1.223344e-01   1.309869e-01   9.838073e-01   1.139891e+00   9.196533e-01   8.050187e-01  -6.519600e-02  -4.963020e-02   3.403631e-02   1.530327e-01  -7.441445e-02  -1.741616e-01  -6.798165e-02  -4.937265e-02   3.096858e-02  -3.184777e-02   2.195182e-01   9.403707e-02  -1.235592e-01  -2.438473e-01  -1.451466e-02  -1.135146e-01   6.136665e-02  -9.112313e-02   2.481737e-01  -1.401010e-02  -2.583395e-02  -4.433112e-02  -2.389241e-02   4.765408e-02   2.234236e-02   1.024045e-02  -3.655010e-02  -8.161621e-02  -1.401010e-02   4.765408e-02  -8.161621e-02  -2.486318e-02  -1.704534e-02  -7.103869e-03  -9.707657e-04  -2.728579e-02   2.944623e-02   3.145549e+00   5.765071e+04   5.765079e+04   5.765068e+04   1.675981e+00   1.675981e+00   1.194648e-01   1.051036e-01   5.678973e-02  -1.265034e+00   2.837964e+00  -3.131041e+00  -6.025742e-01  -6.148763e-02   7.762635e-01   6.303635e-01  -7.544648e-03   6.292002e-01  -7.739793e-01   7.115656e-02  -3.901509e-02   5.998333e-02   9.974366e-01  -5.381798e+04  -3.137915e+03   3.112688e+04  -7.211472e-01  -6.765768e-01   1.489649e-01   3.197088e-01  -1.342561e-01   9.379561e-01  -6.145999e-01   7.240298e-01   3.131260e-01  -8.692395e-02  -1.748615e-02   5.643788e-02   2.582362e-01   9.843933e-02   9.610535e-01  -9.075534e-01  -3.162742e-01   2.762562e-01   3.311509e-01  -9.435467e-01   7.665507e-03
   1.495502e-02   1.495503e-02   4.815329e-03   1.514077e+03   7.502416e-01   1.871790e-01   2.508610e-01   2.927292e-01   1.018238e-02   1.733412e-02   8.650685e-02  -4.435515e-01  -8.681622e-01  -1.323254e+00   2.531847e-03  -1.337988e-01  -4.773721e-01  -9.383560e+03  -7.600400e+03   3.910771e+03   7.483836e+04   8.680663e+04  -7.427822e+04  -9.383590e+03  -6.941843e+04   4.566487e+04   2.190952e+05  -7.600394e+03  -4.950622e+04   1.279484e+05  -9.905026e+04   3.910724e+03  -9.383574e+03  -6.941843e+04   4.566487e+04   2.190952e+05  -7.600363e+03  -4.950621e+04   1.279484e+05  -9.905024e+04   3.910772e+03   1.808812e+00   2.041305e-01   5.074414e-02  -4.419210e-01   7.214556e-01  -1.406739e-01  -1.460572e-01  -2.301393e-01   8.809916e-01   9.636686e-01   2.490292e-01   9.657791e-02  -2.538308e-01   9.663830e-01   4.091229e-02  -8.314290e-02  -6.394034e-02   9.944842e-01   1.867412e+00   7.627521e-01   8.752777e-01   3.272094e-02   1.135971e-02  -1.796390e-01   1.244214e+00  -1.924342e-01  -1.007449e-01   4.201040e-02   1.263910e-02  -1.469412e-01   3.170117e-01   9.454427e-01   2.954483e-01  -4.783889e-01  -2.134428e-01  -2.209015e-01  -1.226438e-01  -3.285495e-01  -1.321278e-01   6.597463e-01  -3.288494e-02   2.370202e-02  -2.174941e-03  -2.184468e-02  -1.235964e-03   7.452294e-03  -3.940368e-02  -3.199267e-02  -2.124175e-03  -3.288494e-02  -1.235964e-03  -2.124175e-03   9.286687e-04  -2.078931e-02  -1.227019e-02   2.277335e-02   1.861437e-02   1.972248e-02   1.787456e+00   2.893106e+05   2.893106e+05   2.893106e+05   2.214062e+00   2.214062e+00   6.901364e-02   4.748357e-02   5.008186e-02  -8.783226e-01   1.167116e+00  -1.643961e+00  -6.155095e-01  -3.754970e-01  -1.041613e-01  -5.249337e-01  -8.447455e-01   4.756110e-01  -7.722412e-01   4.212336e-01  -8.734670e-01  -3.578941e-01   3.301019e-01  -3.099285e+05   8.357107e+04   2.132842e+05   6.428072e-01  -6.153219e-01  -4.562651e-01   2.234358e-01  -4.191168e-01   8.800100e-01  -7.327178e-01  -6.676227e-01  -1.319263e-01  -4.391287e-02  -8.351167e-03   1.601896e-02  -8.752936e-01  -1.159376e-01  -4.694887e-01   3.501440e-01  -8.215717e-01  -4.499102e-01  -3.335572e-01  -5.581921e-01   7.597112e-01
   1.495502e-02   1.495503e-02   1.426617e-02   1.290903e+03   1.052827e+00   2.909357e-01   3.542323e-01   2.639229e-01   2.199862e-03   3.835472e-02  -3.909545e-02  -7.443089e-01  -1.381945e+00  -2.941079e-02  -1.728599e-02   4.065404e-02  -3.717809e-02   1.704637e+03   1.675110e+04  -2.311689e+03   2.496853e+04   9.721736e+03  -2.664493e+03   1.704638e+03   1.987909e+04   1.646793e+04   3.005769e+04   1.675099e+04  -4.929100e+03   2.975443e+03  -4.001144e+02  -2.311694e+03   1.704715e+03   1.987908e+04   1.646792e+04   3.005771e+04   1.675114e+04  -4.929097e+03   2.975443e+03  -4.001105e+02  -2.311691e+03   1.024707e+00  -1.196853e-01   9.894983e-02   1.097490e-01   1.080895e+00  -1.565042e-01   4.634564e-01  -7.747756e-02   9.496231e-01   9.744788e-01  -1.290142e-01  -1.837019e-01   1.185228e-01   9.906859e-01  -6.703600e-02   1.906395e-01   4.355230e-02   9.806935e-01   1.099916e+00   1.082894e+00   9.236033e-01  -3.290429e-03   2.589108e-01  -1.264542e-01   1.384309e-01   9.433068e-02  -3.196569e-02  -1.996137e-02   2.621637e-01  -1.272910e-01   6.693198e-02   3.524259e-01  -1.466521e-01   7.291279e-02  -1.336822e-01   3.360161e-02   3.384685e-01  -8.635785e-02  -6.914050e-02   4.294556e-01   3.516599e-03  -1.706642e-02   4.587448e-02  -1.670934e-01  -3.100835e-02  -1.506118e-01  -6.851853e-02  -8.085409e-02  -7.593289e-02   3.516599e-03  -3.100835e-02  -7.593289e-02  -9.207992e-02  -1.132203e-02  -1.157329e-01   7.501351e-02   5.719650e-02  -3.487883e-02   1.589044e+00   4.349723e+04   4.349702e+04   4.349708e+04   1.844341e+00   1.844341e+00   2.664052e-01   2.252592e-01   1.422322e-01  -7.185550e-01   1.212596e+00  -1.428154e+00  -6.991386e-01  -2.837244e-02  -2.489723e-01  -9.681643e-01  -2.589623e-02  -9.684958e-01   2.487316e-01   1.218749e-02   5.358279e-03  -2.811474e-02   9.995903e-01  -2.209729e+04  -2.025655e+03   4.026699e+04   7.835317e-01  -6.075753e-01  -1.301167e-01   8.071796e-02  -1.081050e-01   9.908572e-01   6.160866e-01   7.868707e-01   3.566149e-02  -1.960070e-01  -1.710126e-02   1.096836e-01  -3.425669e-01  -6.600907e-01  -6.685268e-01  -7.446019e-01  -2.431622e-01   6.216431e-01   5.729013e-01  -7.107407e-01   4.082055e-01
