     VARIABLES=
              x              y              z      nomin_den    nomin_voidr      fabric_xx      fabric_yy      fabric_zz      fabric_xy      fabric_xz      fabric_yz       sigma_xx       sigma_yy       sigma_zz       sigma_xy       sigma_xz       sigma_yz    sigmaDot_xx    sigmaDot_yy    sigmaDot_zz    sigmaDot_xy    sigmaDot_xz    sigmaDot_yz       Oldro_xx       Oldro_xy       Oldro_xz       Oldro_yx       Oldro_yy       Oldro_yz       Oldro_zx       Oldro_zy       Oldro_zz       Trues_xx       Trues_xy       Trues_xz       Trues_yx       Trues_yy       Trues_yz       Trues_zx       Trues_zy       Trues_zz           F_xX           F_xY           F_xZ           F_yX           F_yY           F_yZ           F_zX           F_zY           F_zZ           R_xX           R_xY           R_xZ           R_yX           R_yY           R_yZ           R_zX           R_zY           R_zZ           U_xX           U_yY           U_zZ           U_xY           U_xZ           U_yZ       Green_xx       Green_yy       Green_zz       Green_xy       Green_xz       Green_yz      Green_vol      Green_shr       Euler_xx       Euler_yy       Euler_zz       Euler_xy       Euler_xz       Euler_yz      Euler_vol      Euler_shr           l_xx           l_xy           l_xz           l_yx           l_yy           l_yz           l_zx           l_zy           l_zz           d_xx           d_yy           d_zz           d_xy           d_xz           d_yz           w_xy           w_xz           w_yz     norm_sigma  norm_sigmaDot     norm_Oldro     norm_Trues         norm_F         norm_U         norm_l         norm_d         norm_w              p              q        sigma_1        sigma_2        sigma_3     sigma_1_v1     sigma_1_v2     sigma_1_v3     sigma_2_v1     sigma_2_v2     sigma_2_v3     sigma_3_v1     sigma_3_v2     sigma_3_v3     sigmaDot_1     sigmaDot_2     sigmaDot_3  sigmaDot_1_v1  sigmaDot_1_v2  sigmaDot_1_v3  sigmaDot_2_v1  sigmaDot_2_v2  sigmaDot_2_v3  sigmaDot_3_v1  sigmaDot_3_v2  sigmaDot_3_v3            d_1            d_2            d_3         d_1_v1         d_1_v2         d_1_v3         d_2_v1         d_2_v2         d_2_v3         d_3_v1         d_3_v2         d_3_v3
ZONE I=2, J=2, K=2, DATAPACKING=POINT, STRANDID=5, SOLUTIONTIME=27
   5.067436e-03   5.067438e-03   4.837829e-03   1.571844e+03   6.859184e-01   3.414606e-01   3.499274e-01   2.899205e-01  -3.859769e-02  -2.272017e-02   1.943025e-02  -2.020542e+01  -1.675468e+01  -1.592661e+01  -2.915353e-04   3.181151e+00   1.095690e+00   1.139396e+04  -6.646487e+03   1.018035e+02  -1.527188e+05   8.622591e+04   4.562699e+04   1.139378e+04  -1.770388e+04   1.719460e+05  -2.877334e+05  -6.647439e+03   1.111298e+05   5.066395e+02  -1.987536e+04   1.027171e+02   1.139375e+04  -1.770388e+04   1.719460e+05  -2.877334e+05  -6.647467e+03   1.111298e+05   5.066450e+02  -1.987536e+04   1.026902e+02   1.031003e+00  -1.063170e-02  -9.350187e-05   1.957980e-02   9.935233e-01   5.031584e-03  -9.535040e-04  -2.560792e-02   1.008771e+00   9.998886e-01  -1.492411e-02   1.985296e-04   1.491932e-02   9.997716e-01   1.530423e-02  -4.268861e-04  -1.529956e-02   9.998829e-01   1.031181e+00   9.938468e-01   1.008730e+00   4.203106e-03  -4.490540e-04  -1.040192e-02   3.167622e-02  -6.071365e-03   8.822202e-03   4.258039e-03  -4.798753e-04  -1.041627e-02   1.147568e-02   2.551759e-02   2.962738e-02  -6.584462e-03   8.770701e-03   4.578169e-03  -2.802640e-04  -1.013777e-02   1.060454e-02   2.460784e-02  -4.964668e-03  -1.643745e-03  -3.545677e-03   1.024010e-02  -2.845542e-02  -4.556293e-04   2.673727e-02   1.574521e-02   3.510602e-02  -4.964668e-03  -2.845542e-02   3.510602e-02   4.298177e-03   1.159580e-02   7.644790e-03  -5.941922e-03  -1.514147e-02  -8.100419e-03   3.107759e+01   3.543845e+05   3.543846e+05   3.543846e+05   1.751815e+00   1.751815e+00   5.612420e-02   4.989540e-02   2.569776e-02  -1.762890e+01   7.256584e+00  -2.216961e+01  -1.680394e+01  -1.391316e+01  -8.550489e-01  -1.857793e-01   4.841254e-01  -2.975253e-01   9.404172e-01  -1.646033e-01  -4.247000e-01  -2.847834e-01  -8.593767e-01  -2.861788e+05   8.581554e+01   2.909423e+05   6.942567e-01   7.180829e-01   4.862654e-02   6.888986e-02   9.521831e-04  -9.976238e-01  -7.164229e-01   6.959569e-01  -4.880758e-02  -2.973525e-02  -7.866097e-03   3.928728e-02  -1.275122e-01   9.874094e-01  -9.361215e-02  -9.563828e-01  -9.739583e-02   2.754016e-01   2.628167e-01   1.246461e-01   9.567605e-01
   5.067436e-03   5.067438e-03   1.424367e-02   1.493747e+03   7.740621e-01   3.063455e-01   2.592635e-01   3.629625e-01  -4.893045e-03   2.323788e-02   2.897773e-02  -3.157589e+00  -1.830421e+00  -3.025552e+00   1.475822e-01  -8.747013e-01  -5.121262e-01  -1.620816e+04  -2.616711e+03   8.176326e+03   9.903605e+04  -8.833940e+03   2.693231e+04  -1.620774e+04   2.060877e+04   3.505375e+02   1.774635e+05  -2.616738e+03   1.164643e+04  -1.801869e+04   4.221845e+04   8.175858e+03  -1.620768e+04   2.060878e+04   3.505503e+02   1.774635e+05  -2.616705e+03   1.164644e+04  -1.801867e+04   4.221846e+04   8.175913e+03   9.148753e-01   1.319281e-01  -2.599621e-01   5.270414e-02   8.539142e-01  -5.807949e-02  -8.855359e-02  -1.185281e-01   1.247121e+00   9.961846e-01   3.895914e-02  -7.809184e-02  -3.667641e-02   9.988630e-01   3.045595e-02   7.918958e-02  -2.747562e-02   9.964809e-01   9.024392e-01   8.613397e-01   1.261264e+00   9.072003e-02  -1.580811e-01  -1.024068e-01  -7.619190e-02  -1.196883e-01   3.131321e-01   8.809933e-02  -1.756655e-01  -1.158551e-01   3.908397e-02   3.809497e-01  -1.356214e-01  -2.196293e-01   1.354119e-01   1.141115e-01  -1.567068e-01  -5.090920e-02  -7.327958e-02   3.153805e-01   1.025792e-01   9.304329e-02  -1.136368e-01  -1.376651e-02  -2.110347e-02   4.417689e-02   5.169415e-02   4.317398e-02  -9.971398e-02   1.025792e-01  -2.110347e-02  -9.971398e-02   3.963839e-02  -3.097131e-02   4.367543e-02   5.340490e-02  -8.266545e-02   5.014544e-04   4.983954e+00   1.857342e+05   1.857343e+05   1.857343e+05   1.798473e+00   1.798473e+00   2.217171e-01   1.725881e-01   1.391827e-01  -2.671187e+00   2.516536e+00  -4.142345e+00  -2.634004e+00  -1.237213e+00  -7.283868e-01  -2.633999e-03  -6.851611e-01  -5.209448e-01   6.516741e-01   5.513052e-01  -4.450496e-01  -7.584945e-01   4.760430e-01  -1.957989e+05   1.492373e+04   1.702267e+05  -6.984087e-01   6.860982e-01  -2.037022e-01   2.254943e-01  -5.917830e-02  -9.724455e-01  -6.792478e-01  -7.250981e-01  -1.133806e-01  -1.278943e-01  -6.071358e-03   1.157274e-01   1.926818e-01  -4.318767e-01   8.811108e-01  -1.835499e-01   8.662249e-01   4.647192e-01   9.639415e-01   2.512707e-01  -8.763482e-02
   5.067436e-03   1.493253e-02   4.837829e-03   1.503695e+03   7.623259e-01   3.510963e-01   3.385250e-01   2.999620e-01   1.095881e-02  -1.470725e-02   3.458379e-02  -1.587295e+01  -1.641737e+01  -1.259025e+01  -5.688911e-01   3.489580e+00  -4.767839e+00   5.423427e+04   8.438545e+04   6.116412e+04  -1.389310e+05  -1.990058e+05   1.679348e+05   5.423402e+04  -7.181765e+04  -1.867901e+05  -2.060452e+05   8.438451e+04   7.835524e+03  -2.112211e+05   3.280334e+05   6.116499e+04   5.423373e+04  -7.181766e+04  -1.867900e+05  -2.060452e+05   8.438420e+04   7.835441e+03  -2.112210e+05   3.280333e+05   6.116476e+04   1.017661e+00   7.698765e-03   2.990274e-03   3.204903e-02   9.927491e-01   5.758715e-03   2.400163e-02   1.188636e-02   9.964187e-01   9.998734e-01  -1.210144e-02  -1.032926e-02   1.206979e-02   9.999223e-01  -3.121245e-03   1.036623e-02   2.996178e-03   9.999418e-01   1.018168e+00   9.926144e-01   9.963118e-01   1.980328e-02   1.338851e-02   8.707528e-03   1.861865e-02  -7.124358e-03  -3.553818e-03   1.996833e-02   1.357166e-02   8.791884e-03   2.646824e-03   3.375862e-02   1.613112e-02  -7.745374e-03  -3.760088e-03   1.951058e-02   1.303138e-02   8.815775e-03   1.541884e-03   3.249210e-02  -4.352445e-03  -1.526987e-02   1.386101e-02  -1.055449e-02  -2.697865e-02  -4.988004e-03   1.953147e-02  -2.549472e-02   4.963805e-02  -4.352445e-03  -2.697865e-02   4.963805e-02  -1.291218e-02   1.669624e-02  -1.524136e-02  -2.357693e-03  -2.835230e-03   1.025336e-02   2.740463e+01   4.985861e+05   4.985858e+05   4.985856e+05   1.736629e+00   1.736629e+00   6.930916e-02   6.757443e-02   1.540965e-02  -1.496019e+01   1.087356e+01  -2.054681e+01  -1.616735e+01  -8.166420e+00  -3.889266e-01   7.022924e-01   5.962562e-01  -8.538992e-01  -5.177490e-01   5.284158e-02   3.458213e-01  -4.885912e-01   8.010532e-01  -2.559079e+05  -1.140876e+05   5.697794e+05   4.988531e-02  -6.773341e-01   7.339823e-01  -8.665235e-01  -3.947843e-01  -3.054217e-01   4.966372e-01  -6.207768e-01  -6.066198e-01  -3.353039e-02  -6.473158e-03   5.831050e-02   3.546776e-01   9.297139e-01   9.917613e-02  -8.882168e-01   3.019057e-01   3.463004e-01   2.920184e-01  -2.109149e-01   9.328666e-01
   5.067436e-03   1.493253e-02   1.424367e-02   1.581064e+03   6.760870e-01   3.454499e-01   2.877928e-01   3.310430e-01   5.474624e-02  -1.978381e-02  -6.314144e-03  -8.894389e+00  -1.066677e+01  -9.516439e+00  -4.523062e+00  -2.537158e-01  -3.098730e+00  -2.762887e+04  -1.307466e+05  -1.647135e+05  -1.469493e+05   9.521126e+03   5.721961e+04  -2.762892e+04  -9.786612e+04   6.988957e+03  -1.960325e+05  -1.307466e+05  -2.202247e+04   1.205274e+04   1.364614e+05  -1.647147e+05  -2.762833e+04  -9.786586e+04   6.988976e+03  -1.960322e+05  -1.307459e+05  -2.202224e+04   1.205275e+04   1.364616e+05  -1.647140e+05   1.156101e+00   1.132627e-01  -1.000922e-01   1.561247e-01   9.194796e-01  -2.908565e-02   8.828875e-02  -5.510628e-02   1.078496e+00   9.960859e-01  -2.154390e-02  -8.572498e-02   2.315371e-02   9.995729e-01   1.782896e-02   8.530426e-02  -1.974403e-02   9.961593e-01   1.162722e+00   9.177349e-01   1.082416e+00   1.294079e-01  -8.373532e-03  -4.821071e-02   1.843697e-01  -6.934603e-02   8.700895e-02   1.348156e-01  -1.251929e-02  -4.875614e-02   6.734421e-02   2.223873e-01   1.045417e-01  -1.202213e-01   7.211877e-02   1.308826e-01   3.526770e-03  -3.470760e-02   1.881305e-02   2.101048e-01   1.981173e-03  -8.948183e-03  -4.191261e-03   1.271550e-02  -1.350676e-02   3.057441e-02  -1.416305e-02  -1.571306e-02  -5.489712e-02   1.981173e-03  -1.350676e-02  -5.489712e-02   1.883659e-03  -9.177156e-03   7.430675e-03  -1.083184e-02   4.985895e-03   2.314373e-02   1.856441e+01   3.351059e+05   3.351064e+05   3.351056e+05   1.845011e+00   1.845011e+00   6.958203e-02   5.904251e-02   3.681902e-02  -9.692534e+00   1.000478e+01  -1.569308e+01  -9.214232e+00  -4.170294e+00  -5.667420e-01  -7.496056e-01  -3.418991e-01  -4.503568e-01  -6.563725e-02   8.904328e-01  -6.899147e-01   6.586222e-01  -3.003906e-01  -3.559551e+05  -1.103265e+05   1.431926e+05  -4.465428e-01  -7.148040e-01   5.381959e-01  -5.302890e-01  -2.730564e-01  -8.026418e-01   7.206893e-01  -6.438132e-01  -2.571213e-01  -5.766099e-02  -1.221809e-02   3.456371e-03  -1.551112e-01   1.703783e-01  -9.730939e-01   1.739978e-02  -9.843916e-01  -1.751299e-01  -9.877438e-01  -4.409623e-02   1.497256e-01
   1.493252e-02   5.067438e-03   4.837829e-03   1.607979e+03   6.480319e-01   4.262394e-01   3.204552e-01   2.286140e-01  -1.327503e-02   2.757174e-02  -1.715843e-02  -6.173282e+01  -2.979047e+01  -2.317491e+01  -2.013837e+01  -1.200062e+01   3.508865e+00  -6.893934e+05   3.503341e+04   6.407814e+04   7.798822e+05  -1.851085e+06   6.575909e+04  -6.893952e+05   1.817177e+06  -3.413847e+06  -2.574151e+05   3.503259e+04  -4.624838e+04  -2.883251e+05   1.777632e+05   6.407795e+04  -6.893930e+05   1.817178e+06  -3.413846e+06  -2.574144e+05   3.503367e+04  -4.624855e+04  -2.883247e+05   1.777631e+05   6.407879e+04   9.989512e-01  -2.199936e-03  -4.814965e-03   2.998868e-02   1.058836e+00   2.674816e-02   2.301250e-02   6.016975e-03   9.694380e-01   9.997811e-01  -1.540866e-02  -1.415608e-02   1.555290e-02   9.998277e-01   1.013633e-02   1.399745e-02  -1.035427e-02   9.998484e-01   9.995210e-01   1.058625e+00   9.696303e-01   1.435274e-02   9.171761e-03   1.677992e-02  -3.338517e-04   6.058768e-02  -2.972570e-02   1.484697e-02   9.150711e-03   1.708280e-02   1.017604e-02   6.019922e-02  -1.538759e-03   5.391738e-02  -3.242511e-02   1.200947e-02   9.342667e-03   1.541639e-02   6.651171e-03   5.637068e-02  -5.351059e-03  -3.394883e-02   8.636931e-03   2.431231e-02  -3.763258e-02  -6.357885e-02  -2.246148e-02  -4.942604e-03   6.957435e-03  -5.351059e-03  -3.763258e-02   6.957435e-03  -4.818260e-03  -6.912276e-03  -3.426073e-02  -2.913057e-02   1.554921e-02  -2.931813e-02   7.981703e+01   3.952241e+06   3.952242e+06   3.952241e+06   1.749587e+00   1.749587e+00   8.878444e-02   6.310972e-02   6.244871e-02  -3.823273e+01   5.382258e+01  -7.333911e+01  -2.710449e+01  -1.425460e+01  -8.933282e-01  -4.188059e-01  -1.629917e-01   1.594470e-01  -6.344574e-01   7.563335e-01  -4.201682e-01   6.496656e-01   6.335561e-01  -8.305522e+05  -1.287632e+05   3.690336e+05  -9.393140e-01  -2.264086e-01  -2.577368e-01  -6.243559e-03  -7.398844e-01   6.727051e-01  -3.430017e-01   6.334905e-01   6.935702e-01  -5.730895e-02  -4.721613e-03   2.600436e-02   1.439070e-01   8.667430e-01   4.775431e-01   9.820045e-01  -1.847158e-01   3.933435e-02  -1.223025e-01  -4.632890e-01   8.777274e-01
   1.493252e-02   5.067438e-03   1.424367e-02   1.422210e+03   8.632967e-01   3.078444e-01   3.506653e-01   2.700617e-01  -7.877045e-03  -1.899733e-02  -1.087038e-03  -2.094058e+00  -1.857035e+00  -2.924129e-01  -9.370369e-01  -6.864691e-02  -7.042487e-02  -1.563154e+04  -7.473131e+03   2.448315e+03  -5.565043e+04  -5.717503e+03   2.747803e+04  -1.563174e+04  -3.521310e+04  -1.326857e+04  -7.608800e+04  -7.473133e+03   6.767863e+03   1.833565e+03   4.818821e+04   2.448326e+03  -1.563173e+04  -3.521310e+04  -1.326857e+04  -7.608799e+04  -7.473123e+03   6.767863e+03   1.833565e+03   4.818821e+04   2.448328e+03   1.121482e+00  -4.954187e-02  -1.357914e-02  -7.548966e-02   8.296536e-01  -3.360259e-02  -1.830855e-01   2.203333e-01   9.435332e-01   9.969461e-01   2.184630e-02   7.497530e-02  -1.115282e-02   9.900624e-01  -1.401855e-01  -7.729276e-02   1.389212e-01   9.872825e-01   1.133050e+00   8.509355e-01   9.352263e-01  -7.567371e-02  -8.609119e-02   9.751142e-02   1.484699e-01  -1.303369e-01  -5.421577e-02  -7.926520e-02  -9.271969e-02   9.034301e-02  -1.202758e-02   2.416884e-01   8.165873e-02  -2.564463e-01  -5.487831e-02  -5.421054e-02  -8.935622e-02   1.155307e-01  -7.655529e-02   2.663377e-01  -3.519748e-02  -3.048252e-02   1.073293e-02  -2.235700e-02   8.754618e-03   4.863583e-02   3.482035e-03  -7.046803e-03   2.096227e-02  -3.519748e-02   8.754618e-03   2.096227e-02  -2.641976e-02   7.107482e-03   2.079451e-02  -4.062759e-03   3.625447e-03   2.784132e-02   3.118388e+00   9.941242e+04   9.941260e+04   9.941259e+04   1.711092e+00   1.711092e+00   7.567274e-02   6.416219e-02   4.011954e-02  -1.414502e+00   2.502371e+00  -3.042842e+00  -9.144463e-01  -2.862176e-01  -7.444641e-01  -6.663168e-01  -4.236888e-02  -6.676600e-01   7.431322e-01   4.454914e-02  -1.801837e-03  -6.145325e-02   9.981083e-01  -1.001698e+05  -1.113043e+03   8.062645e+04   6.336293e-01   6.958533e-01  -3.380859e-01  -5.381343e-01   8.246883e-02  -8.388149e-01  -5.558105e-01   7.134333e-01   4.267172e-01  -5.098830e-02   7.237657e-03   3.827005e-02   8.624923e-01   4.570467e-01  -2.172910e-01   4.772738e-01  -5.918466e-01   6.495593e-01  -1.682760e-01   6.639472e-01   7.285996e-01
   1.493252e-02   1.493253e-02   4.837829e-03   1.535231e+03   7.261243e-01   2.818826e-01   3.582411e-01   3.455906e-01   1.540564e-02  -1.167248e-02   4.819905e-02  -5.519453e+00  -6.091667e+00  -4.438517e+00   9.683811e-01  -7.596874e-01  -1.079889e+00  -6.663607e+04  -4.619283e+04  -4.131864e+04  -3.366424e+04  -1.147403e+05  -2.993164e+04  -6.663623e+04  -2.971599e+04  -1.697711e+05  -3.761206e+04  -4.619271e+04  -9.514536e+04  -5.970969e+04   3.528241e+04  -4.131879e+04  -6.663612e+04  -2.971600e+04  -1.697711e+05  -3.761208e+04  -4.619260e+04  -9.514534e+04  -5.970968e+04   3.528243e+04  -4.131871e+04   1.134492e+00  -2.506532e-03  -5.553467e-02   3.351393e-02   8.219606e-01   7.571403e-02  -1.632754e-01  -1.433079e-01   8.815420e-01   9.983627e-01  -2.782571e-02   4.997629e-02   2.117366e-02   9.914161e-01   1.290184e-01  -5.313733e-02  -1.277490e-01   9.903821e-01   1.142020e+00   8.332822e-01   8.800565e-01   2.251648e-02  -1.006834e-01  -3.600673e-02   1.574267e-01  -1.519187e-01  -1.070335e-01   2.405107e-02  -1.022001e-01  -3.197938e-02  -3.384182e-02   2.309037e-01   9.132523e-02  -2.370309e-01  -1.425481e-01   9.469031e-03  -1.152789e-01  -4.784966e-02  -9.608459e-02   2.428774e-01  -1.558489e-02   1.022239e-02   2.646596e-02   2.031105e-02   1.132853e-02   1.116171e-02  -3.271686e-02   1.253659e-02  -1.430890e-02  -1.558489e-02   1.132853e-02  -1.430890e-02   1.526672e-02  -3.125450e-03   1.184915e-02  -5.044333e-03   2.959141e-02  -6.874388e-04   9.630327e+00   2.307901e+05   2.307901e+05   2.307900e+05   1.672408e+00   1.672408e+00   5.608560e-02   3.663954e-02   4.246338e-02  -5.349879e+00   3.117268e+00  -7.022204e+00  -5.582180e+00  -3.445252e+00   5.332768e-01  -8.256832e-01  -1.840195e-01  -7.032938e-01  -3.118506e-01  -6.388482e-01   4.700996e-01   4.701027e-01  -7.470006e-01  -1.160255e+05  -7.625512e+04   3.813307e+04   8.049125e-01   1.424972e-01   5.760299e-01   2.068065e-01   8.425114e-01  -4.973988e-01   5.561897e-01  -5.194893e-01  -6.486786e-01  -2.770300e-02  -1.175978e-02   2.089753e-02   7.024976e-01  -4.436980e-01   5.564434e-01  -6.186266e-01   5.845220e-03   7.856634e-01   3.518498e-01   8.961573e-01   2.703771e-01
   1.493252e-02   1.493253e-02   1.424367e-02   1.361326e+03   9.466319e-01   3.557408e-01   2.868060e-01   3.182375e-01   1.820325e-02  -2.838673e-03  -2.320485e-02  -2.348115e+00  -1.955843e+00  -5.777719e-01  -8.322858e-01   3.699405e-01   3.417746e-01   1.723050e+03   5.423814e+03  -3.343061e+03   2.249728e+04   9.611446e+03  -4.966630e+02   1.722802e+03   3.263033e+04   1.208890e+04   1.236383e+04   5.423602e+03  -3.514290e+03   7.134333e+03   2.521209e+03  -3.343132e+03   1.723032e+03   3.263043e+04   1.208885e+04   1.236390e+04   5.423794e+03  -3.514304e+03   7.134304e+03   2.521155e+03  -3.343075e+03   1.139847e+00  -2.762530e-01   1.249398e+00   3.537328e-01   1.074567e+00  -1.594692e+00   1.150496e+00  -8.203623e-01   1.984884e+00   4.041498e-01   6.266703e-01   6.662937e-01   6.314828e-01   3.358278e-01  -6.988914e-01   6.617344e-01  -7.032098e-01   2.600068e-01   1.445368e+00   7.646369e-01   2.463066e+00   2.406124e-02   8.113890e-01  -1.148371e+00   8.740101e-01   4.520025e-01   3.521901e+00  -4.393001e-01   1.571814e+00  -1.843539e+00   1.615971e+00   3.431456e+00  -6.605668e+01  -8.581792e+00  -5.353738e+01   2.415655e+01   5.985883e+01  -2.191826e+01  -4.272528e+01   8.610494e+01  -3.559638e-02  -3.937951e-02   2.074902e-02  -2.034421e-02  -4.842183e-02  -1.701170e-02   4.100485e-02   3.528453e-02  -1.414604e-02  -3.559638e-02  -4.842183e-02  -1.414604e-02  -2.986186e-02   3.087693e-02   9.136415e-03  -9.517650e-03  -1.012791e-02  -2.614812e-02   3.420668e+00   3.843077e+04   3.843058e+04   3.843070e+04   3.563120e+00   3.563120e+00   9.707129e-02   8.757320e-02   4.187802e-02  -1.627243e+00   2.280228e+00  -3.006663e+00  -1.490748e+00  -3.843184e-01   7.525372e-01   6.165615e-01  -2.313863e-01   6.577843e-01  -7.206727e-01   2.189765e-01   3.174130e-02   3.169903e-01   9.478975e-01  -1.118581e+04  -3.143281e+03   1.813290e+04   7.249087e-01  -4.620704e-01  -5.108800e-01   2.171309e-01  -5.505650e-01   8.060598e-01   6.537290e-01   6.952475e-01   2.987796e-01  -8.342625e-02  -2.469705e-02   9.959046e-03  -6.534220e-01  -6.560173e-01   3.777315e-01  -4.049698e-01   7.245141e-01   5.577444e-01  -6.395617e-01   2.114726e-01  -7.390806e-01
