     VARIABLES=
              x              y              z      nomin_den    nomin_voidr      fabric_xx      fabric_yy      fabric_zz      fabric_xy      fabric_xz      fabric_yz       sigma_xx       sigma_yy       sigma_zz       sigma_xy       sigma_xz       sigma_yz    sigmaDot_xx    sigmaDot_yy    sigmaDot_zz    sigmaDot_xy    sigmaDot_xz    sigmaDot_yz       Oldro_xx       Oldro_xy       Oldro_xz       Oldro_yx       Oldro_yy       Oldro_yz       Oldro_zx       Oldro_zy       Oldro_zz       Trues_xx       Trues_xy       Trues_xz       Trues_yx       Trues_yy       Trues_yz       Trues_zx       Trues_zy       Trues_zz           F_xX           F_xY           F_xZ           F_yX           F_yY           F_yZ           F_zX           F_zY           F_zZ           R_xX           R_xY           R_xZ           R_yX           R_yY           R_yZ           R_zX           R_zY           R_zZ           U_xX           U_yY           U_zZ           U_xY           U_xZ           U_yZ       Green_xx       Green_yy       Green_zz       Green_xy       Green_xz       Green_yz      Green_vol      Green_shr       Euler_xx       Euler_yy       Euler_zz       Euler_xy       Euler_xz       Euler_yz      Euler_vol      Euler_shr           l_xx           l_xy           l_xz           l_yx           l_yy           l_yz           l_zx           l_zy           l_zz           d_xx           d_yy           d_zz           d_xy           d_xz           d_yz           w_xy           w_xz           w_yz     norm_sigma  norm_sigmaDot     norm_Oldro     norm_Trues         norm_F         norm_U         norm_l         norm_d         norm_w              p              q        sigma_1        sigma_2        sigma_3     sigma_1_v1     sigma_1_v2     sigma_1_v3     sigma_2_v1     sigma_2_v2     sigma_2_v3     sigma_3_v1     sigma_3_v2     sigma_3_v3     sigmaDot_1     sigmaDot_2     sigmaDot_3  sigmaDot_1_v1  sigmaDot_1_v2  sigmaDot_1_v3  sigmaDot_2_v1  sigmaDot_2_v2  sigmaDot_2_v3  sigmaDot_3_v1  sigmaDot_3_v2  sigmaDot_3_v3            d_1            d_2            d_3         d_1_v1         d_1_v2         d_1_v3         d_2_v1         d_2_v2         d_2_v3         d_3_v1         d_3_v2         d_3_v3
ZONE I=2, J=2, K=2, DATAPACKING=POINT, STRANDID=5, SOLUTIONTIME=21
   5.052436e-03   5.052438e-03   4.822829e-03   1.543663e+03   7.166960e-01   2.668737e-01   3.140464e-01   3.749622e-01  -1.280040e-03  -5.674218e-02   2.476751e-02  -3.516545e+00  -4.644437e+00  -4.795087e+00  -1.083801e-01   7.063589e-01   1.181333e+00   9.952326e+04   2.068003e+05   2.664353e+04   3.299396e+04   2.130470e+05   1.470002e+05   9.952325e+04  -3.307820e+04   2.724355e+05   9.906619e+04   2.067999e+05  -7.772356e+05   1.536586e+05   1.071236e+06   2.664384e+04   9.952324e+04  -3.307820e+04   2.724355e+05   9.906619e+04   2.067999e+05  -7.772356e+05   1.536587e+05   1.071236e+06   2.664382e+04   1.007461e+00  -3.878044e-03  -1.631087e-01   2.434510e-02   9.972482e-01  -1.474427e-02  -3.421107e-02  -2.257604e-02   8.219946e-01   9.974025e-01  -1.477468e-02  -7.049736e-02   1.516271e-02   9.998727e-01   4.972206e-03   7.041493e-02  -6.028222e-03   9.974996e-01   1.002805e+00   9.973146e-01   8.313647e-01   9.663320e-03  -1.050279e-01  -1.728768e-02   8.370860e-03  -2.485669e-03  -1.487516e-01   1.057174e-02  -9.640298e-02  -1.631427e-02  -4.762212e-02   1.521897e-01  -2.497182e-04  -3.395891e-03  -2.702980e-01   7.172509e-03  -1.240329e-01  -2.457419e-02  -9.131453e-02   2.311371e-01   2.515708e-04   1.640112e-02   8.207387e-03  -2.023578e-03  -2.960897e-02   2.061468e-02   3.429292e-02  -1.671656e-02   3.380650e-02   2.515708e-04  -2.960897e-02   3.380650e-02   7.188772e-03   2.125015e-02   1.949063e-03   9.212351e-03  -1.304277e-02   1.866562e-02   7.827927e+00   1.383388e+06   1.383388e+06   1.383388e+06   1.647503e+00   1.647503e+00   6.511912e-02   5.507927e-02   3.473864e-02  -4.318690e+00   3.192094e+00  -6.381213e+00  -3.741286e+00  -2.833571e+00   1.124873e-01   6.758518e-01  -7.284030e-01  -8.384251e-01   4.579805e-01   2.954611e-01   5.332823e-01   5.774757e-01   6.181681e-01  -9.603245e+05   7.358393e+04   1.219708e+06   4.402300e-02   6.735087e-01  -7.378672e-01  -9.867530e-01   1.447501e-01   7.325251e-02   1.561426e-01   7.248679e-01   6.709591e-01  -3.140394e-02  -8.576304e-03   4.442934e-02  -2.557772e-01   9.651982e-01   5.450159e-02  -8.601495e-01  -2.529484e-01   4.428995e-01   4.412719e-01   6.640407e-02   8.949132e-01
   5.052436e-03   5.052438e-03   1.425867e-02   1.614552e+03   6.413223e-01   2.631241e-01   3.195629e-01   3.632589e-01  -2.867813e-02   6.729480e-02  -7.650203e-05  -2.706373e+00  -8.810098e-01  -1.597921e+00   1.905480e-01  -8.877583e-01   5.384336e-02  -1.158786e+04  -5.597126e+03  -8.427815e+03   2.050886e+04  -2.948532e+04  -8.064067e+03  -1.158778e+04   3.070860e+04  -3.291712e+04   1.030929e+04  -5.597102e+03  -6.227935e+03  -2.605363e+04  -9.900128e+03  -8.427964e+03  -1.158777e+04   3.070860e+04  -3.291712e+04   1.030928e+04  -5.597098e+03  -6.227936e+03  -2.605362e+04  -9.900128e+03  -8.427957e+03   8.212545e-01  -3.035257e-01   6.445649e-02  -5.018400e-02   5.226323e-01   1.942407e-01  -2.609217e-02  -8.773807e-02   1.300402e+00   9.813376e-01  -1.870725e-01   4.450160e-02   1.778773e-01   9.710420e-01   1.594904e-01  -7.304919e-02  -1.485981e-01   9.861959e-01   7.989073e-01   5.773169e-01   1.316299e+00  -1.984876e-01   2.811275e-03  -1.667946e-02  -1.611709e-01  -3.135148e-01   3.664644e-01  -1.366052e-01   4.628547e-03  -1.607125e-02  -3.607377e-02   4.416192e-01  -2.941447e-01  -1.612984e+00   1.649239e-01  -5.467388e-01   1.085325e-01   2.873142e-01  -5.807348e-01   1.288457e+00   7.063731e-02   1.302025e-01  -1.441870e-01  -1.744725e-02   1.122070e-02   2.980557e-02   7.237592e-02   1.467431e-02  -8.640835e-02   7.063731e-02   1.122070e-02  -8.640835e-02   5.637760e-02  -3.590555e-02   2.223994e-02   7.382485e-02  -1.082815e-01   7.565632e-03   3.531669e+00   5.643624e+04   5.643636e+04   5.643635e+04   1.668400e+00   1.668400e+00   2.386858e-01   1.500215e-01   1.856460e-01  -1.728435e+00   2.436818e+00  -3.324027e+00  -1.195074e+00  -6.662033e-01  -8.632543e-01   1.590901e-01  -4.790432e-01  -3.355250e-01   5.281740e-01   7.800354e-01  -3.771141e-01  -8.340999e-01   4.025697e-01  -3.612884e+04  -1.266140e+04   2.317745e+04  -7.329831e-01   2.709502e-02  -6.797070e-01   2.845664e-01  -8.953619e-01  -3.425626e-01   6.178655e-01   4.445143e-01  -6.485748e-01  -1.053019e-01  -5.938125e-03   1.066897e-01  -2.846639e-01   3.108132e-01  -9.068416e-01  -4.093632e-01   8.159764e-01   4.081718e-01   8.668265e-01   4.874193e-01  -1.050436e-01
   5.052436e-03   1.494753e-02   4.822829e-03   1.509303e+03   7.557778e-01   3.288710e-01   2.973407e-01   3.463911e-01   8.739904e-03  -3.109075e-03   1.363039e-02  -4.200701e+00  -2.984685e+00  -5.814884e+00  -7.719916e-01   3.173665e-01  -2.056547e+00  -2.884176e+04   4.041659e+04   1.251469e+05   1.601779e+05  -1.469204e+05  -5.486878e+05  -2.884170e+04  -5.042972e+04  -1.520968e+05   3.707855e+05   4.041660e+04   3.080614e+04  -1.417442e+05  -1.128182e+06   1.251469e+05  -2.884175e+04  -5.042973e+04  -1.520968e+05   3.707854e+05   4.041657e+04   3.080611e+04  -1.417442e+05  -1.128182e+06   1.251469e+05   1.010698e+00   1.174213e-02  -4.829363e-03   2.225646e-02   9.961195e-01   7.160771e-03   1.078898e-02   9.755311e-03   9.886904e-01   9.999562e-01  -5.212999e-03  -7.775314e-03   5.203289e-03   9.999857e-01  -1.268595e-03   7.781816e-03   1.228082e-03   9.999690e-01   1.010853e+00   9.960560e-01   9.886881e-01   1.700063e-02   2.901914e-03   8.400037e-03   1.106105e-02  -3.756403e-03  -1.120840e-02   1.707155e-02   2.972652e-03   8.360629e-03  -1.301249e-03   2.578572e-02   1.002665e-02  -4.352976e-03  -1.156315e-02   1.680848e-02   2.836312e-03   8.681308e-03  -1.963159e-03   2.547543e-02   1.050890e-02  -1.796529e-02  -7.679931e-04   1.214191e-02   1.530274e-04  -1.997174e-03  -1.475278e-02  -4.185322e-03   2.369694e-03   1.050890e-02   1.530274e-04   2.369694e-03  -2.911690e-03  -7.760387e-03  -3.091248e-03  -1.505360e-02   6.992394e-03   1.094074e-03   8.381157e+00   1.214545e+06   1.214545e+06   1.214545e+06   1.729796e+00   1.729796e+00   2.874010e-02   1.651032e-02   2.352452e-02  -4.333424e+00   4.569796e+00  -6.882925e+00  -4.502987e+00  -1.614358e+00  -7.482727e-03   4.625325e-01   8.865708e-01  -9.461771e-01  -2.901523e-01   1.433894e-01   3.235628e-01  -8.377800e-01   4.398087e-01  -1.074962e+06  -9.744658e+04   1.309130e+06   1.680080e-01  -7.280725e-01  -6.645929e-01  -9.504644e-01   5.921047e-02  -3.051418e-01   2.615162e-01   6.829382e-01  -6.820592e-01  -5.431620e-03   3.204912e-03   1.525833e-02  -4.362799e-01  -5.990909e-01  -6.713792e-01   2.594393e-01  -7.981981e-01   5.436645e-01   8.615980e-01  -6.300777e-02  -5.036655e-01
   5.052436e-03   1.494753e-02   1.425867e-02   1.496327e+03   7.710036e-01   2.752738e-01   2.559138e-01   3.854791e-01   6.539791e-02   4.808375e-02   2.694613e-03  -5.790322e+00  -5.233615e+00  -2.003230e+00  -2.704499e+00  -1.231098e+00  -4.780211e-01  -9.681315e+03  -1.876986e+04   4.976527e+03  -4.729133e+04  -1.748638e+04   2.941617e+04  -9.680749e+03  -5.435708e+04  -3.060146e+04  -4.022542e+04  -1.877022e+04   7.335788e+03  -4.371626e+03   5.149595e+04   4.976398e+03  -9.680734e+03  -5.435707e+04  -3.060146e+04  -4.022541e+04  -1.877020e+04   7.335790e+03  -4.371623e+03   5.149595e+04   4.976403e+03   1.018869e+00   1.241570e-01  -1.481398e-01   3.527143e-02   9.870400e-01  -3.447463e-02   2.067743e-01  -7.205647e-02   1.081641e+00   9.852661e-01   4.168708e-02  -1.658700e-01  -3.752818e-02   9.988996e-01   2.813020e-02   1.668601e-01  -2.149094e-02   9.857463e-01   1.037036e+00   9.926781e-01   1.089826e+00   7.326252e-02   3.581946e-02  -6.385769e-02   4.104696e-02  -2.572489e-03   9.654097e-02   7.320731e-02   3.575234e-02  -6.517984e-02   4.500515e-02   1.334345e-01   2.163430e-02  -3.061269e-02   8.477585e-02   8.252208e-02   2.315023e-02  -4.686698e-02   2.526582e-02   1.310514e-01   4.527620e-02   8.466729e-03  -1.555308e-03  -1.354646e-02  -3.312464e-02   6.394936e-02   3.411815e-04  -7.414386e-02  -1.469255e-02   4.527620e-02  -3.312464e-02  -1.469255e-02  -2.539865e-03  -6.070633e-04  -5.097247e-03   1.100659e-02  -9.482448e-04   6.904661e-02   9.142898e+00   9.329963e+04   9.329944e+04   9.329943e+04   1.808323e+00   1.808323e+00   1.149244e-01   5.855467e-02   9.888861e-02  -4.342389e+00   5.738525e+00  -7.993467e+00  -3.506351e+00  -1.527349e+00  -7.536299e-01  -6.300206e-01  -1.873926e-01  -5.462390e-01   7.588770e-01  -3.545823e-01  -3.656021e-01   1.648627e-01   9.160542e-01  -7.408592e+04  -8.454187e+03   5.906546e+04  -4.438452e-01  -7.618989e-01   4.717113e-01  -7.935273e-01   8.961886e-02  -6.018994e-01  -4.163122e-01   6.414659e-01   6.443645e-01  -3.452575e-02  -1.337690e-02   4.536167e-02  -3.270083e-02  -9.677652e-01  -2.497221e-01  -7.965953e-04  -2.498305e-01   9.682893e-01   9.994649e-01  -3.186279e-02  -7.398746e-03
   1.494752e-02   5.052438e-03   4.822829e-03   1.593162e+03   6.633590e-01   3.960973e-01   3.091652e-01   2.734610e-01   6.062382e-03   1.070139e-02   1.076512e-02  -1.472730e+01  -8.074161e+00  -1.026275e+01  -6.006300e+00  -5.019217e+00  -1.849350e+00  -1.613241e+03  -4.195270e+04   3.464583e+03  -3.371280e+04  -1.159650e+05  -1.181804e+04  -1.613463e+03  -6.132243e+04  -1.446083e+05  -6.102971e+03  -4.195225e+04   4.572952e+04  -8.732213e+04  -6.936565e+04   3.464798e+03  -1.614078e+03  -6.132268e+04  -1.446086e+05  -6.103216e+03  -4.195258e+04   4.572944e+04  -8.732233e+04  -6.936573e+04   3.464370e+03   9.947858e-01  -1.040191e-02  -6.394528e-03   4.178234e-02   1.060421e+00   2.548623e-02   5.313736e-02  -1.185028e-02   9.572020e-01   9.992197e-01  -2.477510e-02  -3.076041e-02   2.533817e-02   9.995159e-01   1.805219e-02   3.029827e-02  -1.881752e-02   9.993638e-01   9.966782e-01   1.060388e+00   9.572497e-01   1.611629e-02   2.325780e-02   7.620154e-03  -2.915917e-03   6.237064e-02  -4.153697e-02   1.666475e-02   2.278344e-02   7.874771e-03   5.972582e-03   6.944795e-02  -6.802189e-03   5.586450e-02  -4.535172e-02   1.333939e-02   2.563394e-02   6.108264e-03   1.236864e-03   6.813711e-02  -1.782242e-02   1.892384e-02   7.480367e-03  -1.093154e-02   3.725502e-02  -3.637628e-03  -3.072227e-02   1.807389e-02   2.227517e-02  -1.782242e-02   3.725502e-02   2.227517e-02   3.996151e-03  -1.162095e-02   7.218132e-03   1.492769e-02   1.910132e-02  -1.085576e-02   2.273456e+01   2.025136e+05   2.025137e+05   2.025141e+05   1.742365e+00   1.742365e+00   6.339622e-02   5.106851e-02   3.756445e-02  -1.102140e+01   1.481380e+01  -2.068690e+01  -7.944557e+00  -4.432753e+00  -7.869745e-01  -4.295802e-01  -4.428680e-01  -2.547396e-01  -4.275257e-01   8.673693e-01  -5.619421e-01   7.954135e-01   2.270207e-01  -1.245561e+05  -1.958693e+04   1.040417e+05  -4.900843e-01  -5.815053e-01  -6.493605e-01  -6.407038e-01   7.454203e-01  -1.839764e-01   5.910297e-01   3.258838e-01  -7.378914e-01  -2.151345e-02   2.304607e-02   4.017516e-02  -9.577201e-01   9.833169e-02  -2.703759e-01  -2.874238e-01  -3.683146e-01   8.841561e-01   1.264285e-02  -9.244865e-01  -3.810052e-01
   1.494752e-02   5.052438e-03   1.425867e-02   1.344704e+03   9.706933e-01   2.560730e-01   3.595528e-01   1.065964e-01   6.027050e-02  -7.215781e-02  -4.505157e-02  -2.034194e+00  -1.511620e+00  -1.991918e-03  -1.239294e+00   4.709179e-02   3.575033e-02  -1.835708e+04  -1.106684e+04  -5.011295e+02  -2.945021e+04   2.120168e+03   2.187519e+02  -1.835733e+04  -3.205773e+04   2.122417e+03  -2.684299e+04  -1.106680e+04  -3.546364e+02   2.117917e+03   7.920560e+02  -5.011286e+02  -1.835729e+04  -3.205771e+04   2.122416e+03  -2.684296e+04  -1.106677e+04  -3.546377e+02   2.117916e+03   7.920559e+02  -5.011285e+02   1.070778e+00  -1.939227e-01   2.997994e-02   9.323081e-03   9.026956e-01  -6.821279e-02  -1.403361e-01   1.992563e-01   8.676012e-01   9.914880e-01  -9.403714e-02   9.004754e-02   1.058253e-01   9.849550e-01  -1.366187e-01  -7.584554e-02   1.449851e-01   9.865226e-01   1.073294e+00   9.362397e-01   8.679269e-01  -1.118567e-01  -4.329757e-02   5.578350e-02   8.317293e-02  -5.391576e-02  -1.208582e-01  -1.135975e-01  -4.514494e-02   5.274292e-02  -3.053369e-02   1.950778e-01   5.628067e-02  -1.375401e-01  -1.426227e-01  -7.920611e-02  -7.735930e-02   7.782713e-02  -7.462736e-02   2.038767e-01  -1.144120e-02  -8.202326e-02   1.137689e-02  -3.110448e-02   3.785162e-02  -8.181184e-02   2.818811e-02  -5.201657e-02  -4.599557e-02  -1.144120e-02   3.785162e-02  -4.599557e-02  -5.656387e-02   1.978250e-02  -6.691420e-02  -2.545939e-02  -8.405609e-03  -1.489763e-02   3.084412e+00   4.709223e+04   4.709251e+04   4.709245e+04   1.678332e+00   1.678332e+00   1.473005e-01   1.407689e-01   4.337682e-02  -1.182602e+00   2.912375e+00  -3.107649e+00  -4.390642e-01  -1.092691e-03   7.732429e-01   6.340451e-01  -9.068520e-03   6.333361e-01  -7.729266e-01  -3.833854e-02   3.131766e-02  -2.390158e-02   9.992237e-01  -4.190935e+04  -4.423478e+02   1.242665e+04  -7.526902e-01  -6.563923e-01   5.105437e-02  -2.330515e-03   8.020192e-02   9.967759e-01  -6.583707e-01   7.501445e-01  -6.189693e-02  -8.500057e-02  -3.958064e-02   1.049961e-01   1.908551e-01   5.358461e-01   8.224617e-01  -8.703434e-01  -2.951022e-01   3.942297e-01   4.539567e-01  -7.910649e-01   4.100484e-01
   1.494752e-02   1.494753e-02   4.822829e-03   1.567221e+03   6.908906e-01   2.432328e-01   3.353794e-01   2.862526e-01  -2.165763e-02   2.723762e-02   4.865811e-02  -6.770545e-01  -1.256185e+00  -1.643005e+00   1.339386e-02  -3.184430e-01  -5.097170e-01  -5.925652e+02   1.182957e+04   1.448154e+04  -1.182450e+05  -5.537117e+04   3.143063e+05  -5.925828e+02  -4.094066e+04  -1.340421e+04  -1.955493e+05   1.182951e+04   7.391321e+03  -9.733816e+04   6.212213e+05   1.448148e+04  -5.925387e+02  -4.094066e+04  -1.340419e+04  -1.955493e+05   1.182959e+04   7.391359e+03  -9.733814e+04   6.212213e+05   1.448159e+04   1.195957e+00   9.126415e-02   2.563112e-02  -2.256791e-01   6.015179e-01  -3.004458e-01  -3.066510e-01  -3.229294e-01   7.606664e-01   9.595488e-01   2.020914e-01   1.960233e-01  -2.030507e-01   9.790470e-01  -1.540608e-02  -1.950295e-01  -2.501977e-02   9.804782e-01   1.253210e+00   6.154376e-01   7.554699e-01   2.841453e-02  -6.275233e-02  -3.080024e-01   2.876397e-01  -2.627818e-01  -1.652310e-01   3.621230e-02  -6.740053e-02  -2.120129e-01  -4.679103e-02   4.274976e-01  -1.230315e-01  -1.788538e+00  -1.080826e+00  -7.178105e-01  -6.287699e-01  -1.389565e+00  -9.974652e-01   2.172613e+00  -2.977071e-02  -4.133910e-02   3.388262e-02   3.264551e-02  -3.319520e-02   1.713536e-02  -5.635002e-02  -8.778594e-03  -2.257281e-03  -2.977071e-02  -3.319520e-02  -2.257281e-03  -4.346796e-03  -1.123370e-02   4.178382e-03  -3.699231e-02   4.511632e-02   1.295698e-02   2.339831e+00   6.602201e+05   6.602201e+05   6.602201e+05   1.649016e+00   1.649016e+00   9.727283e-02   4.814988e-02   8.451978e-02  -1.192082e+00   1.279637e+00  -2.003909e+00  -1.013159e+00  -5.591768e-01  -2.259513e-01  -5.072308e-01  -8.316628e-01   3.117386e-01  -8.464960e-01   4.315826e-01  -9.229112e-01  -1.617447e-01   3.493902e-01  -6.164128e+05  -5.408706e+04   6.962184e+05  -1.189209e-01  -7.166032e-01   6.872682e-01  -9.507691e-01  -1.173142e-01  -2.868371e-01   2.861747e-01  -6.875443e-01  -6.673731e-01  -3.655807e-02  -3.123040e-02   2.565276e-03  -6.853032e-01  -7.151945e-01  -1.373185e-01   6.427536e-01  -6.826414e-01   3.476615e-01   3.423849e-01  -1.499915e-01  -9.275102e-01
   1.494752e-02   1.494753e-02   1.425867e-02   1.296878e+03   1.043369e+00   2.916413e-01   2.715597e-01   1.736411e-01   4.879140e-02   6.077058e-03   1.299262e-02  -8.314806e-01  -1.302733e+00  -1.551264e-01   6.469970e-02   2.822359e-03  -8.206897e-02   1.024265e+04   8.905907e+03   6.424883e+03   2.945321e+04   8.557571e+03  -6.397913e+03   1.024263e+04   2.822542e+04   7.608252e+03   3.068079e+04   8.905957e+03  -5.895508e+03   9.506888e+03  -6.900541e+03   6.424870e+03   1.024263e+04   2.822542e+04   7.608252e+03   3.068079e+04   8.905956e+03  -5.895508e+03   9.506888e+03  -6.900541e+03   6.424869e+03   1.326202e+00  -4.866634e-01   1.321572e+00  -3.141211e-01   1.517317e+00  -1.531533e+00   1.960719e+00  -1.483800e+00   3.239528e+00   9.467867e-01  -2.462555e-01  -2.072516e-01   2.217587e-01   9.657836e-01  -1.344807e-01   2.332768e-01   8.136467e-02   9.690004e-01   1.643361e+00   1.464515e+00   3.071167e+00  -4.704242e-01   1.667323e+00  -1.540991e+00   2.350950e+00   1.870378e+00   6.793343e+00  -2.015675e+00   4.292780e+00  -3.886897e+00   3.671557e+00   7.743020e+00  -5.949533e+00  -1.028876e+00  -2.367319e+00   2.600615e+00   4.195719e+00  -1.919120e+00  -3.115243e+00   6.784594e+00  -1.471391e-02  -1.180957e-02   2.709086e-02  -1.105720e-01   9.431610e-03   6.532360e-02  -1.284744e-02  -9.561898e-02   6.311209e-03  -1.471391e-02   9.431610e-03   6.311209e-03  -6.119081e-02   7.121711e-03  -1.514769e-02   4.938124e-02   1.996915e-02   8.047129e-02   1.562329e+00   4.684167e+04   4.684157e+04   4.684157e+04   5.002933e+00   5.002933e+00   1.643778e-01   9.162018e-02   1.364764e-01  -7.631135e-01   1.008683e+00  -1.307769e+00  -8.323402e-01  -1.492311e-01   4.432459e-02  -9.973225e-01  -5.816479e-02  -9.977022e-01  -4.120488e-02  -5.378139e-02  -5.124072e-02  -6.041498e-02   9.968573e-01  -2.534353e+04   1.053248e+04   4.038449e+04  -6.642476e-01   6.641522e-01   3.430408e-01  -1.955042e-01   2.885828e-01  -9.372823e-01  -7.214938e-01  -6.896534e-01  -6.184589e-02  -6.525557e-02   2.004220e-03   6.428026e-02  -7.662641e-01  -6.397958e-01  -5.916597e-02  -2.171223e-01   1.711692e-01   9.610198e-01  -6.047290e-01   7.492412e-01  -2.700748e-01
