     VARIABLES=
              x              y              z      nomin_den    nomin_voidr      fabric_xx      fabric_yy      fabric_zz      fabric_xy      fabric_xz      fabric_yz       sigma_xx       sigma_yy       sigma_zz       sigma_xy       sigma_xz       sigma_yz    sigmaDot_xx    sigmaDot_yy    sigmaDot_zz    sigmaDot_xy    sigmaDot_xz    sigmaDot_yz       Oldro_xx       Oldro_xy       Oldro_xz       Oldro_yx       Oldro_yy       Oldro_yz       Oldro_zx       Oldro_zy       Oldro_zz       Trues_xx       Trues_xy       Trues_xz       Trues_yx       Trues_yy       Trues_yz       Trues_zx       Trues_zy       Trues_zz           F_xX           F_xY           F_xZ           F_yX           F_yY           F_yZ           F_zX           F_zY           F_zZ           R_xX           R_xY           R_xZ           R_yX           R_yY           R_yZ           R_zX           R_zY           R_zZ           U_xX           U_yY           U_zZ           U_xY           U_xZ           U_yZ       Green_xx       Green_yy       Green_zz       Green_xy       Green_xz       Green_yz      Green_vol      Green_shr       Euler_xx       Euler_yy       Euler_zz       Euler_xy       Euler_xz       Euler_yz      Euler_vol      Euler_shr           l_xx           l_xy           l_xz           l_yx           l_yy           l_yz           l_zx           l_zy           l_zz           d_xx           d_yy           d_zz           d_xy           d_xz           d_yz           w_xy           w_xz           w_yz     norm_sigma  norm_sigmaDot     norm_Oldro     norm_Trues         norm_F         norm_U         norm_l         norm_d         norm_w              p              q        sigma_1        sigma_2        sigma_3     sigma_1_v1     sigma_1_v2     sigma_1_v3     sigma_2_v1     sigma_2_v2     sigma_2_v3     sigma_3_v1     sigma_3_v2     sigma_3_v3     sigmaDot_1     sigmaDot_2     sigmaDot_3  sigmaDot_1_v1  sigmaDot_1_v2  sigmaDot_1_v3  sigmaDot_2_v1  sigmaDot_2_v2  sigmaDot_2_v3  sigmaDot_3_v1  sigmaDot_3_v2  sigmaDot_3_v3            d_1            d_2            d_3         d_1_v1         d_1_v2         d_1_v3         d_2_v1         d_2_v2         d_2_v3         d_3_v1         d_3_v2         d_3_v3
ZONE I=2, J=2, K=2, DATAPACKING=POINT, STRANDID=5, SOLUTIONTIME=32
   5.079936e-03   5.079938e-03   4.850329e-03   1.584051e+03   6.729260e-01   3.373036e-01   3.094566e-01   3.434358e-01  -2.317121e-02  -3.466543e-02   4.055236e-03  -2.201090e+01  -2.542303e+01  -3.214247e+01  -1.247598e+00   5.826555e+00  -4.374660e-01  -4.774437e+04   4.738357e+03   3.347158e+03   2.559722e+04   2.762420e+05   2.115374e+05  -4.774431e+04   2.982601e+04   4.327274e+05   2.136844e+04   4.737696e+03   4.694720e+04   1.197579e+05   3.761308e+05   3.349723e+03  -4.774506e+04   2.982596e+04   4.327276e+05   2.136841e+04   4.736834e+03   4.694721e+04   1.197581e+05   3.761308e+05   3.348633e+03   1.030895e+00  -1.586359e-02   2.839953e-03   2.682418e-02   9.907486e-01   5.683988e-03  -3.869029e-03  -2.219472e-02   1.017347e+00   9.997724e-01  -2.112108e-02   3.005881e-03   2.107733e-02   9.996811e-01   1.390872e-02  -3.298690e-03  -1.384219e-02   9.998988e-01   1.031238e+00   9.910749e-01   1.017331e+00   5.095573e-03  -3.968008e-04  -8.460117e-03   3.173918e-02  -8.836479e-03   1.751721e-02   5.154101e-03  -4.279916e-04  -8.496686e-03   1.347330e-02   2.640208e-02   2.957021e-02  -9.194220e-03   1.701578e-02   5.719652e-03  -2.493877e-04  -8.016388e-03   1.246392e-02   2.551467e-02  -1.860524e-03   2.338136e-02  -6.698149e-03  -2.008602e-02  -1.239081e-02   2.118941e-02   4.759405e-02   2.827342e-02   4.815024e-02  -1.860524e-03  -1.239081e-02   4.815024e-02   1.647673e-03   2.044795e-02   2.473142e-02   2.173369e-02  -2.714610e-02  -3.542008e-03   4.731327e+01   5.907036e+05   5.907053e+05   5.907055e+05   1.755232e+00   1.755232e+00   8.357040e-02   6.738243e-02   4.943298e-02  -2.652547e+01   1.262541e+01  -3.423446e+01  -2.559710e+01  -1.974484e+01   3.679119e-01  -9.515547e-02  -9.249791e-01  -2.281988e-01  -9.735693e-01   9.387662e-03  -9.014245e-01   2.076253e-01  -3.799021e-01  -3.869621e+05  -5.526637e+04   4.025696e+05   2.087420e-01   6.714181e-01  -7.110728e-01  -9.531155e-01   3.025497e-01   5.881339e-03   2.190837e-01   6.765068e-01   7.030938e-01  -2.295529e-02  -6.194052e-03   6.304824e-02   3.111381e-01   8.663023e-01  -3.907857e-01  -9.039770e-01   3.966715e-01   1.596162e-01   2.932894e-01   3.035986e-01   9.065369e-01
   5.079936e-03   5.079938e-03   1.423117e-02   1.485550e+03   7.838507e-01   3.306979e-01   2.715140e-01   3.299916e-01  -1.906683e-02  -1.270350e-02   1.084160e-02  -1.877374e+01  -8.476062e+00  -1.592358e+01  -1.801675e+00  -1.608078e+00  -1.162341e+00   1.577877e+04   1.362470e+05   1.359539e+04   2.317296e+05   7.359323e+04  -1.169136e+04   1.577856e+04  -2.863771e+05   1.288706e+05   7.498374e+05   1.362480e+05  -2.235723e+04   1.831585e+04  -1.024530e+03   1.359361e+04   1.577887e+04  -2.863771e+05   1.288706e+05   7.498374e+05   1.362481e+05  -2.235722e+04   1.831589e+04  -1.024506e+03   1.359387e+04   8.403877e-01   1.513817e-01  -1.824346e-01   6.332485e-02   8.635001e-01  -7.167243e-02   5.757142e-02  -1.462861e-01   1.121174e+00   9.917353e-01   4.449707e-02  -1.203371e-01  -3.932485e-02   9.982118e-01   4.502062e-02   1.221252e-01  -3.991630e-02   9.917117e-01   8.379829e-01   8.745312e-01   1.130609e+00   9.830836e-02  -4.118466e-02  -1.244152e-01  -1.432120e-01  -1.050257e-01   1.477256e-01   8.673922e-02  -4.665341e-02  -1.267593e-01  -3.350404e-02   2.601688e-01  -2.160956e-01  -2.309870e-01   8.507894e-02   1.672440e-01  -7.312446e-02  -9.252366e-02  -1.206679e-01   3.134382e-01   1.893502e-03  -3.506269e-02  -4.859331e-02   3.939744e-02   4.297854e-02   1.720849e-02   4.702614e-02   9.306787e-03  -6.144704e-02   1.893502e-03   4.297854e-02  -6.144704e-02   2.167376e-03  -7.835828e-04   1.325764e-02  -3.723007e-02  -4.780972e-02   3.950852e-03   2.637300e+01   8.250507e+05   8.250510e+05   8.250511e+05   1.673014e+00   1.673014e+00   1.156008e-01   7.738625e-02   8.587732e-02  -1.439113e+01   1.048237e+01  -2.027401e+01  -1.471625e+01  -8.183119e+00   8.552824e-01   1.209525e-01   5.038477e-01   5.169707e-01  -1.332840e-01  -8.455629e-01   3.511808e-02  -9.836696e-01   1.765244e-01  -6.765298e+05   1.371863e+04   8.284324e+05   7.348246e-01  -6.779470e-01  -2.050924e-02   5.359262e-03  -2.443362e-02   9.996871e-01   6.782360e-01   7.347046e-01   1.432113e-02  -6.312076e-02   1.811898e-03   4.473387e-02  -1.610117e-02   1.242986e-01  -9.921142e-01  -9.987229e-01   4.552487e-02   2.191207e-02  -4.788951e-02  -9.912000e-01  -1.234068e-01
   5.079936e-03   1.492003e-02   4.850329e-03   1.515373e+03   7.487447e-01   3.615719e-01   3.485421e-01   2.807116e-01   8.542528e-03  -2.317539e-02   1.604323e-02  -3.617465e+01  -4.392633e+01  -1.760004e+01   1.798488e+00   7.443228e+00  -8.435651e+00  -4.037538e+02  -1.404399e+04   6.902600e+04  -2.823647e+05   5.804043e+05   4.427133e+05  -4.017792e+02  -2.238472e+05   1.098528e+06  -3.408822e+05  -1.404492e+04   2.866553e+04   6.228148e+04   8.567596e+05   6.902580e+04  -4.026549e+02  -2.238472e+05   1.098528e+06  -3.408822e+05  -1.404598e+04   2.866532e+04   6.228165e+04   8.567594e+05   6.902537e+04   1.027326e+00   6.172771e-03   1.330142e-02   5.075702e-02   1.002845e+00   4.918624e-02   4.260353e-02   2.772281e-02   1.026279e+00   9.996698e-01  -2.146954e-02  -1.411776e-02   2.161624e-02   9.997131e-01   1.032240e-02   1.389209e-02  -1.062416e-02   9.998471e-01   1.028676e+00   1.002131e+00   1.026442e+00   2.823361e-02   2.861740e-02   3.798320e-02   2.989523e-02   3.252876e-03   2.792195e-02   2.921199e-02   2.994226e-02   3.892981e-02   2.035669e-02   6.817418e-02   2.358504e-02   8.650798e-04   2.233996e-02   2.589445e-02   2.401295e-02   3.661627e-02   1.559669e-02   6.056455e-02   2.602010e-02  -2.973624e-03  -5.464798e-03   8.854511e-03  -1.338909e-02   1.671802e-02   1.589346e-02  -2.171872e-02   1.157636e-02   2.602010e-02  -1.338909e-02   1.157636e-02   2.940443e-03   5.214331e-03  -2.500350e-03  -5.914067e-03  -1.067913e-02   1.921837e-02   6.170649e+01   1.454913e+06   1.454913e+06   1.454913e+06   1.766958e+00   1.766958e+00   4.594813e-02   3.277956e-02   3.219831e-02  -3.256701e+01   3.031193e+01  -4.769247e+01  -3.660972e+01  -1.339884e+01  -3.448811e-01   8.809606e-01   3.239837e-01  -8.975077e-01  -4.105641e-01   1.609876e-01   2.748398e-01  -2.352562e-01   9.322648e-01  -9.232705e+05   5.150275e+04   9.263460e+05   3.054215e-01   7.111739e-01  -6.332056e-01   9.285001e-01  -7.493487e-02   3.636926e-01  -2.111995e-01   6.990110e-01   6.832118e-01  -1.394036e-02   1.034055e-02   2.780718e-02  -8.780355e-02   9.894889e-01   1.149014e-01  -2.896332e-01  -1.357226e-01   9.474661e-01   9.531019e-01   4.991164e-02   2.985057e-01
   5.079936e-03   1.492003e-02   1.423117e-02   1.593343e+03   6.631703e-01   3.791630e-01   2.792566e-01   3.251869e-01   2.454776e-02  -8.927572e-03   1.833698e-02  -1.289176e+01  -1.420582e+01  -8.323034e+00  -6.963204e+00  -2.839090e+00  -4.023730e+00  -7.632558e+04  -5.898581e+04  -2.556354e+04  -3.794956e+04  -2.899383e+04  -3.018726e+04  -7.632444e+04  -7.415393e+04  -3.611273e+04  -1.745114e+03  -5.898773e+04  -2.826672e+04  -2.187372e+04  -3.210778e+04  -2.556417e+04  -7.632324e+04  -7.415340e+04  -3.611256e+04  -1.744349e+03  -5.898641e+04  -2.826633e+04  -2.187336e+04  -3.210743e+04  -2.556339e+04   1.020564e+00   9.263091e-02  -1.587807e-01   1.732815e-02   9.266513e-01   1.000681e-02   1.491981e-01  -2.397099e-02   1.170301e+00   9.895103e-01   3.906371e-02  -1.390804e-01  -3.631887e-02   9.990932e-01   2.222015e-02   1.398222e-01  -1.693583e-02   9.900318e-01   1.030090e+00   9.298354e-01   1.180941e+00   5.465264e-02   6.155560e-03  -1.602485e-02   3.205512e-02  -6.608117e-02   1.974584e-01   5.350823e-02   6.367167e-03  -1.674423e-02   5.447745e-02   1.670305e-01   2.935668e-02  -8.864662e-02   1.406047e-01   5.573439e-02  -1.177525e-02  -1.914662e-03   2.710491e-02   1.478354e-01   2.281139e-02   2.502285e-02   3.472432e-02  -2.029508e-02  -7.259699e-02   5.221617e-02   2.381948e-02  -4.723993e-03  -4.323930e-02   2.281139e-02  -7.259699e-02  -4.323930e-02   2.363889e-03   2.927190e-02   2.374609e-02   2.265896e-02   5.452424e-03   2.847008e-02   2.425185e+01   1.381045e+05   1.381045e+05   1.381026e+05   1.823969e+00   1.823969e+00   1.149798e-01   1.025326e-01   5.203274e-02  -1.180687e+01   1.790616e+01  -2.372454e+01  -6.442746e+00  -5.253329e+00   6.427922e-01   6.895483e-01   3.336786e-01   7.369635e-02   3.779038e-01  -9.229071e-01  -7.624874e-01   6.178284e-01   1.920964e-01  -9.210213e+04  -6.706392e+04  -1.708881e+03   7.197906e-01   5.023993e-01   4.790578e-01  -6.520164e-01   7.261490e-01   2.181335e-01   2.382773e-01   4.693640e-01  -8.502478e-01  -8.735517e-02  -4.068946e-02   3.501972e-02   1.235649e-01   8.372617e-01  -5.326580e-01  -3.695586e-01   5.369861e-01   7.583353e-01   9.209550e-01   1.031448e-01   3.757699e-01
   1.492002e-02   5.079938e-03   4.850329e-03   1.620467e+03   6.353315e-01   3.885357e-01   3.484060e-01   2.630583e-01   4.404925e-03   3.133575e-03  -2.274928e-02  -6.720470e+01  -5.858648e+01  -4.436683e+01  -6.352110e+00  -1.203779e+01   1.794583e+01   1.144374e+04  -4.333942e+04   2.061262e+04  -8.712775e+04   2.262536e+03   7.465053e+04   1.144519e+04  -7.625978e+04   1.334112e+05  -9.799463e+04  -4.334136e+04   8.293278e+04  -1.288911e+05   6.636690e+04   2.061331e+04   1.144465e+04  -7.625984e+04   1.334111e+05  -9.799466e+04  -4.334183e+04   8.293292e+04  -1.288912e+05   6.636705e+04   2.061296e+04   9.482254e-01  -2.456825e-02  -2.045850e-02   3.561049e-02   1.050734e+00   1.218204e-02  -4.051321e-02  -2.204359e-02   9.298241e-01   9.994844e-01  -3.042226e-02   1.027090e-02   3.023558e-02   9.993831e-01   1.786642e-02  -1.080810e-02  -1.754666e-02   9.997876e-01   9.492511e-01   1.051220e+00   9.296341e-01   7.452232e-03  -3.012925e-02  -3.518390e-03  -4.897955e-02   5.256594e-02  -6.743011e-02   7.506991e-03  -2.831781e-02  -3.596974e-03  -2.128124e-02   8.202725e-02  -5.780148e-02   4.759459e-02  -7.940400e-02   3.447584e-03  -3.656559e-02  -6.704344e-03  -2.987030e-02   8.952579e-02   1.200530e-02   1.975238e-03  -7.899386e-03   5.318248e-03  -1.784021e-02  -2.448177e-03  -3.487557e-02  -8.455177e-03   1.381315e-02   1.200530e-02  -1.784021e-02   1.381315e-02   3.646743e-03  -2.138748e-02  -5.451677e-03  -1.671505e-03   1.348809e-02   3.003500e-03   1.046128e+02   2.520852e+05   2.520848e+05   2.520850e+05   1.694790e+00   1.694790e+00   4.518382e-02   4.067052e-02   1.968469e-02  -5.671933e+01   4.200963e+01  -7.248585e+01  -6.888183e+01  -2.879032e+01   6.293984e-01  -5.286651e-01   5.695357e-01  -7.255439e-01  -6.622631e-01   1.870660e-01   2.782873e-01  -5.309622e-01  -8.003970e-01  -1.291270e+05  -8.259970e+04   2.004436e+05   7.419458e-01   5.379025e-01   4.002216e-01  -1.636112e-01   7.241485e-01  -6.699555e-01   6.501906e-01  -4.315899e-01  -6.252858e-01  -1.875310e-02  -8.372886e-03   3.510423e-02   3.921519e-03  -9.866846e-01  -1.625982e-01  -7.288829e-01   1.085005e-01  -6.759862e-01   6.846271e-01   1.211659e-01  -7.187520e-01
   1.492002e-02   5.079938e-03   1.423117e-02   1.447187e+03   8.311383e-01   3.501292e-01   3.118408e-01   2.824745e-01   4.387575e-02   1.449436e-03   1.919907e-02  -5.817462e+00  -4.804542e+00  -5.328239e+00  -4.277990e-01  -1.298859e+00  -6.555434e-02  -2.748282e+04  -8.815708e+03  -1.221757e+04  -3.202365e+04  -1.620333e+04   7.574399e+03  -2.748287e+04  -4.056432e+04  -2.793638e+04  -2.348357e+04  -8.815535e+03   4.413269e+03  -4.470640e+03   1.073607e+04  -1.221762e+04  -2.748299e+04  -4.056432e+04  -2.793640e+04  -2.348359e+04  -8.815634e+03   4.413269e+03  -4.470675e+03   1.073606e+04  -1.221773e+04   1.126872e+00  -3.137478e-02  -3.374730e-02  -1.006767e-01   8.327326e-01  -2.445558e-02  -1.503361e-01   2.159522e-01   9.503378e-01   9.980083e-01   4.214427e-02   4.693910e-02  -3.549389e-02   9.902828e-01  -1.344625e-01  -5.214980e-02   1.325287e-01   9.898063e-01   1.136041e+00   8.519384e-01   9.423547e-01  -7.213108e-02  -8.237200e-02   1.003068e-01   1.512884e-01  -1.294683e-01  -4.756054e-02  -7.582878e-02  -8.921841e-02   9.296070e-02  -8.580147e-03   2.399925e-01   8.743469e-02  -2.514523e-01  -5.184130e-02  -6.243279e-02  -7.733416e-02   1.193372e-01  -7.195295e-02   2.661685e-01   2.786920e-03  -2.495576e-02  -2.455686e-02  -4.158137e-02   2.113472e-02   4.254660e-02  -9.312281e-03   2.044564e-02  -3.216503e-03   2.786920e-03   2.113472e-02  -3.216503e-03  -3.326856e-02  -1.693457e-02   3.149612e-02   8.312803e-03  -7.622288e-03   1.105048e-02   9.466283e+00   6.414314e+04   6.414361e+04   6.414371e+04   1.717125e+00   1.717125e+00   7.572704e-02   7.235989e-02   2.233003e-02  -5.316748e+00   3.348714e+00  -7.457414e+00  -4.795164e+00  -3.697666e+00   7.500214e-01   2.436111e-01   6.149159e-01   6.625464e-02   8.973513e-01  -4.363152e-01  -6.580868e-01   3.679867e-01   6.568923e-01  -4.360763e+04  -1.732089e+04   1.241243e+04  -8.144730e-01  -5.745868e-01   8.052165e-02   3.032020e-01  -3.031847e-01   9.034089e-01   4.946738e-01  -7.602165e-01  -4.211516e-01  -2.709528e-02  -1.708369e-02   6.488411e-02  -4.164011e-01  -6.807703e-01   6.026292e-01  -7.503416e-01  -1.169820e-01  -6.506172e-01   5.134176e-01  -7.230955e-01  -4.620988e-01
   1.492002e-02   1.492003e-02   4.850329e-03   1.553020e+03   7.063526e-01   3.465210e-01   3.489602e-01   3.045188e-01  -1.578198e-02  -2.787667e-03   2.618070e-02  -1.921569e+01  -1.667013e+01  -7.857472e+00   1.990477e+00   4.827521e-01  -2.064018e+00  -8.725923e+03  -2.473248e+04  -2.857233e+04   8.641082e+03  -1.195464e+04  -6.755716e+04  -8.726406e+03   1.066261e+04  -2.170484e+04   6.619970e+03  -2.473170e+04  -4.604818e+04  -2.205858e+03  -8.906482e+04  -2.857296e+04  -8.725628e+03   1.066253e+04  -2.170487e+04   6.619881e+03  -2.473103e+04  -4.604812e+04  -2.205861e+03  -8.906472e+04  -2.857264e+04   1.105662e+00   1.067602e-02  -7.535780e-02   2.128684e-02   7.567266e-01   5.052046e-02  -2.479280e-01  -3.190824e-01   8.731967e-01   9.964206e-01  -2.786465e-02   7.980931e-02   9.479628e-03   9.749882e-01   2.220544e-01  -8.400060e-02  -2.205030e-01   9.717625e-01   1.122732e+00   8.078607e-01   8.537438e-01   4.461441e-02  -1.479582e-01  -1.411858e-01   1.422048e-01  -1.627186e-01  -1.146482e-01   5.351093e-02  -1.493674e-01  -1.205980e-01  -4.505402e-02   2.979821e-01   4.409991e-02  -4.447205e-01  -1.546575e-01  -4.062071e-02  -1.779698e-01  -2.218376e-01  -1.850927e-01   4.366024e-01  -9.794076e-03   1.409591e-02   5.196232e-02  -5.667144e-03   2.144757e-02   9.314729e-03  -5.791540e-02   3.188997e-02  -5.212471e-02  -9.794076e-03   2.144757e-02  -5.212471e-02   4.214383e-03  -2.976541e-03   2.060235e-02   9.881527e-03   5.493886e-02  -1.128762e-02   2.695645e+01   1.104120e+05   1.104114e+05   1.104110e+05   1.652173e+00   1.652173e+00   1.032556e-01   6.461472e-02   8.053984e-02  -1.458110e+01   1.184176e+01  -2.063105e+01  -1.594828e+01  -7.163966e+00   8.374397e-01  -5.353707e-01  -1.098773e-01   5.447937e-01   8.017235e-01   2.458441e-01   4.352652e-02   2.657400e-01  -9.630616e-01  -1.158258e+05  -9.187874e+03   6.298297e+04   2.856464e-02  -6.998784e-01  -7.136906e-01  -9.957799e-01   4.237149e-02  -8.140641e-02  -8.721472e-02  -7.130041e-01   6.957146e-01  -5.782585e-02  -9.770480e-03   2.712511e-02   8.206308e-02  -2.547699e-01   9.635133e-01   9.925391e-01  -6.658315e-02  -1.021410e-01  -9.017621e-02  -9.647067e-01  -2.474051e-01
   1.492002e-02   1.492003e-02   1.423117e-02   1.371898e+03   9.316303e-01   3.498894e-01   2.417937e-01   3.002088e-01   6.568919e-03  -4.837386e-02  -6.495005e-03  -2.662244e+00  -2.341591e+00  -2.233850e+00  -4.276666e-01   1.034588e-01   5.800892e-02  -3.750451e+03   1.285285e+04  -1.307135e+04   2.439693e+04  -6.843812e+03   1.536738e+04  -3.750390e+03   1.661217e+04  -1.260614e+04   3.218117e+04   1.285261e+04  -2.945784e+03  -1.081245e+03   3.368042e+04  -1.307160e+04  -3.750187e+03   1.661218e+04  -1.260617e+04   3.218122e+04   1.285278e+04  -2.945796e+03  -1.081235e+03   3.368042e+04  -1.307143e+04   5.155248e-01   2.533585e-01   8.813861e-01   6.358504e-01   4.891864e-01  -1.022383e+00   6.640738e-01  -5.883248e-01   2.528963e+00   1.581327e-01   8.704153e-01   4.662309e-01   8.706976e-01   9.977659e-02  -4.815914e-01   4.657035e-01  -4.821014e-01   7.420906e-01   9.444162e-01   5.529687e-01   2.780020e+00   1.920127e-01   4.269363e-01  -5.540547e-01   5.553271e-02  -1.751900e-01   3.608882e+00   2.548543e-02   7.418559e-01  -8.823406e-01   1.163075e+00   2.787905e+00  -3.565445e+00  -8.826913e-01  -6.070574e-01   1.799068e+00   1.984941e+00  -1.078551e+00  -1.685065e+00   3.831583e+00   1.412225e-02  -7.119163e-03   3.975535e-02  -8.959943e-02  -3.561493e-02  -1.055818e-02   1.294882e-02  -2.426959e-02  -5.481030e-02   1.412225e-02  -3.561493e-02  -5.481030e-02  -4.835930e-02   2.635209e-02  -1.741389e-02   4.124013e-02   1.340326e-02   6.855701e-03   4.274751e+00   5.445073e+04   5.445039e+04   5.445042e+04   3.158868e+00   3.158868e+00   1.224721e-01   1.055681e-01   6.208698e-02  -2.412562e+00   1.355849e+00  -3.272490e+00  -2.223776e+00  -1.741418e+00   7.753355e-01   6.202309e-01   1.190315e-01   2.982272e-02   1.523088e-01  -9.878829e-01  -6.308450e-01   7.694905e-01   9.959341e-02  -4.668638e+04  -6.929962e+03   4.964739e+04  -4.758013e-01   6.136324e-01  -6.301337e-01  -7.472185e-01   9.592183e-02   6.576196e-01   4.639803e-01   7.837438e-01   4.128777e-01  -6.580881e-02  -6.337953e-02   5.288536e-02   3.162836e-01   8.003289e-01   5.093509e-01  -4.809136e-01  -3.275448e-01   8.132874e-01   8.177327e-01  -5.021833e-01   2.812920e-01
