     VARIABLES=
              x              y              z      nomin_den    nomin_voidr      fabric_xx      fabric_yy      fabric_zz      fabric_xy      fabric_xz      fabric_yz       sigma_xx       sigma_yy       sigma_zz       sigma_xy       sigma_xz       sigma_yz    sigmaDot_xx    sigmaDot_yy    sigmaDot_zz    sigmaDot_xy    sigmaDot_xz    sigmaDot_yz       Oldro_xx       Oldro_xy       Oldro_xz       Oldro_yx       Oldro_yy       Oldro_yz       Oldro_zx       Oldro_zy       Oldro_zz       Trues_xx       Trues_xy       Trues_xz       Trues_yx       Trues_yy       Trues_yz       Trues_zx       Trues_zy       Trues_zz           F_xX           F_xY           F_xZ           F_yX           F_yY           F_yZ           F_zX           F_zY           F_zZ           R_xX           R_xY           R_xZ           R_yX           R_yY           R_yZ           R_zX           R_zY           R_zZ           U_xX           U_yY           U_zZ           U_xY           U_xZ           U_yZ       Green_xx       Green_yy       Green_zz       Green_xy       Green_xz       Green_yz      Green_vol      Green_shr       Euler_xx       Euler_yy       Euler_zz       Euler_xy       Euler_xz       Euler_yz      Euler_vol      Euler_shr           l_xx           l_xy           l_xz           l_yx           l_yy           l_yz           l_zx           l_zy           l_zz           d_xx           d_yy           d_zz           d_xy           d_xz           d_yz           w_xy           w_xz           w_yz     norm_sigma  norm_sigmaDot     norm_Oldro     norm_Trues         norm_F         norm_U         norm_l         norm_d         norm_w              p              q        sigma_1        sigma_2        sigma_3     sigma_1_v1     sigma_1_v2     sigma_1_v3     sigma_2_v1     sigma_2_v2     sigma_2_v3     sigma_3_v1     sigma_3_v2     sigma_3_v3     sigmaDot_1     sigmaDot_2     sigmaDot_3  sigmaDot_1_v1  sigmaDot_1_v2  sigmaDot_1_v3  sigmaDot_2_v1  sigmaDot_2_v2  sigmaDot_2_v3  sigmaDot_3_v1  sigmaDot_3_v2  sigmaDot_3_v3            d_1            d_2            d_3         d_1_v1         d_1_v2         d_1_v3         d_2_v1         d_2_v2         d_2_v3         d_3_v1         d_3_v2         d_3_v3
ZONE I=2, J=2, K=2, DATAPACKING=POINT, STRANDID=5, SOLUTIONTIME=44
   5.109311e-03   5.108421e-03   4.877727e-03   1.593165e+03   6.633559e-01   3.224957e-01   3.220683e-01   3.034879e-01  -4.811345e-02  -1.628542e-02   1.364455e-02  -4.340327e+00  -6.311406e+00  -3.880282e+00   1.111168e+00  -1.533577e-02   1.002129e+00   4.082390e+03  -1.006459e+04   4.545039e+02   2.434356e+04   2.644769e+04   2.268135e+04   4.082363e+03   3.546010e+04   2.269409e+04   1.322691e+04  -1.006481e+04   6.234294e+04   3.020162e+04  -1.697988e+04   4.545213e+02   4.082417e+03   3.546009e+04   2.269410e+04   1.322690e+04  -1.006473e+04   6.234293e+04   3.020162e+04  -1.697990e+04   4.545697e+02   1.027875e+00  -1.085766e-03   6.419598e-03   2.600557e-02   9.891707e-01   2.245438e-03  -6.027344e-03  -5.376301e-03   1.029242e+00   9.998918e-01  -1.343586e-02   5.992043e-03   1.341337e-02   9.999029e-01   3.777613e-03  -6.042217e-03  -3.696830e-03   9.999749e-01   1.028149e+00   9.891091e-01   1.029264e+00   1.221495e-02   2.301157e-04  -1.645968e-03   2.861952e-02  -1.075561e-02   2.969317e-02   1.232016e-02   2.266687e-04  -1.659683e-03   1.585236e-02   3.024056e-02   2.646831e-02  -1.098264e-02   2.803245e-02   1.241567e-02   2.238274e-04  -1.530854e-03   1.450604e-02   2.931231e-02  -2.674616e-03   1.900841e-03   3.018718e-02  -1.361739e-02  -1.803285e-02   1.147323e-02   1.924327e-02   2.352203e-02   8.229485e-03  -2.674616e-03  -1.803285e-02   8.229485e-03  -5.858274e-03   2.471522e-02   1.749763e-02   7.759115e-03   5.471956e-03  -6.024403e-03   8.851202e+00   8.457321e+04   8.457340e+04   8.457338e+04   1.759294e+00   1.759294e+00   5.055292e-02   4.798665e-02   1.590218e-02  -4.844005e+00   3.692294e+00  -7.198958e+00  -4.287006e+00  -3.046050e+00  -3.610753e-01   8.846070e-01  -2.951187e-01  -7.788848e-01  -1.120560e-01   6.170753e-01  -5.127994e-01  -4.526741e-01  -7.294676e-01  -4.227051e+04   4.103253e+03   3.263957e+04  -5.595559e-01   5.545497e-01   6.159317e-01   4.228611e-01   8.301844e-01  -3.632936e-01  -7.128013e-01   5.717049e-02  -6.990321e-01  -3.664708e-02  -6.186157e-03   3.035526e-02   5.091942e-01   6.691005e-01  -5.413186e-01  -6.545907e-01   7.094397e-01   2.611635e-01   5.587775e-01   2.213592e-01   7.992295e-01
   5.109311e-03   5.108421e-03   1.420031e-02   1.658387e+03   5.979387e-01   2.664046e-01   3.532733e-01   3.358777e-01  -4.819234e-02   9.277170e-03  -2.351059e-02  -2.864316e+00  -1.207983e+00  -1.681290e+00  -7.929748e-03  -7.252034e-01  -1.085532e-01  -4.354936e+03   7.185103e+04  -3.099158e+04  -1.951718e+05  -1.420886e+05  -7.380624e+04  -4.354812e+03  -2.627977e+04  -3.218999e+05  -3.640637e+05   7.185095e+04  -2.841898e+03   3.772229e+04  -1.447704e+05  -3.099178e+04  -4.354660e+03  -2.627976e+04  -3.218998e+05  -3.640637e+05   7.185101e+04  -2.841896e+03   3.772235e+04  -1.447704e+05  -3.099169e+04   1.044185e+00  -2.152103e-01  -3.086742e-01   2.242546e-01   7.436572e-01  -2.891736e-01  -4.290854e-01   6.883115e-01   8.753210e-01   9.891552e-01  -1.073076e-01   1.002850e-01   1.427626e-01   8.628808e-01  -4.848253e-01  -3.450853e-02   4.938844e-01   8.688425e-01   1.079683e+00   1.004728e+00   8.697594e-01  -1.304626e-01  -3.768159e-01   2.159081e-01   1.623635e-01   3.655716e-02  -2.745602e-02  -1.766476e-01  -3.813745e-01   2.269387e-01   5.715489e-02   5.627055e-01  -3.306407e-01  -3.759474e-01  -2.152049e-01   3.259183e-01  -5.425335e-01   2.982476e-01  -3.072643e-01   8.135407e-01   3.387589e-02   2.863247e-02  -4.841137e-02  -3.778586e-03  -3.674548e-02   2.974464e-02  -3.436073e-02   4.922803e-02  -5.008739e-02   3.387589e-02  -3.674548e-02  -5.008739e-02   1.242694e-02  -4.138605e-02   3.948633e-02   1.620553e-02  -7.025322e-03  -9.741695e-03   3.701912e+00   5.151543e+05   5.151544e+05   5.151544e+05   1.828368e+00   1.828368e+00   1.125749e-01   1.089007e-01   2.852630e-02  -1.917863e+00   2.259520e+00  -3.407619e+00  -1.366069e+00  -9.799006e-01  -8.713930e-01  -1.705340e-02  -4.902891e-01  -3.257837e-01   7.673328e-01   5.523272e-01  -3.667958e-01  -6.410222e-01   6.742042e-01  -3.484421e+05  -5.297109e+04   4.379177e+05  -6.957260e-01  -6.811719e-01  -2.279696e-01  -3.543767e-01   4.943270e-02   9.337953e-01   6.248059e-01  -7.304528e-01   2.757830e-01  -9.587348e-02  -8.094465e-03   5.101096e-02  -2.984013e-01   5.726374e-01  -7.635726e-01  -2.619597e-01  -8.184362e-01  -5.114091e-01  -9.177874e-01   4.742011e-02   3.942304e-01
   5.109311e-03   1.488953e-02   4.877727e-03   1.549355e+03   7.103893e-01   3.444807e-01   3.229958e-01   3.216539e-01   4.927708e-02   1.849135e-02   2.259585e-02  -7.213433e+00  -7.509723e+00  -1.109079e+01  -9.809249e-01   6.413791e-01  -2.668662e+00   2.278028e+03  -6.811835e+03   3.331314e+04  -1.493275e+04   8.247083e+03  -9.683562e+04   2.277912e+03  -6.142844e+04  -3.083897e+03   3.156250e+04  -6.812063e+03  -5.718580e+04   1.957764e+04  -1.364859e+05   3.331370e+04   2.277810e+03  -6.142845e+04  -3.083893e+03   3.156248e+04  -6.812169e+03  -5.718584e+04   1.957765e+04  -1.364859e+05   3.331354e+04   1.004903e+00   6.684146e-03  -2.065503e-03   3.543634e-02   1.012383e+00   1.908005e-02   3.832914e-02   6.407027e-02   1.020087e+00   9.997128e-01  -1.425742e-02  -1.926507e-02   1.382913e-02   9.996582e-01  -2.218440e-02   1.957478e-02   2.191161e-02   9.995683e-01   1.005855e+00   1.013345e+00   1.019263e+00   2.193676e-02   1.816693e-02   4.145473e-02   6.277468e-03   1.453410e-02   2.047285e-02   2.252390e-02   1.884977e-02   4.232988e-02   1.376147e-02   6.005868e-02   3.507887e-03   8.834742e-03   1.825762e-02   1.914845e-02   1.591471e-02   3.955468e-02   1.020008e-02   5.465407e-02  -7.309631e-03  -1.446079e-02  -1.386133e-02  -1.174137e-02  -3.836551e-03  -2.743595e-02  -1.320716e-03  -2.968722e-05   2.530429e-02  -7.309631e-03  -3.836551e-03   2.530429e-02  -1.310108e-02  -7.591026e-03  -1.373282e-02  -1.359712e-03  -6.270309e-03  -1.370313e-02   1.577512e+01   1.679950e+05   1.679954e+05   1.679954e+05   1.755725e+00   1.755725e+00   4.474421e-02   3.929582e-02   2.139820e-02  -8.604650e+00   6.455557e+00  -1.245366e+01  -8.347546e+00  -5.012741e+00  -5.825017e-02   4.493892e-01   8.914349e-01  -8.076789e-01  -5.460343e-01   2.224890e-01   5.867382e-01  -7.070332e-01   3.947688e-01  -1.345453e+05   1.188730e+04   1.514374e+05   2.591680e-01  -7.343590e-01  -6.273347e-01   9.649923e-01   1.698008e-01   1.998939e-01   4.027198e-02   6.571792e-01  -7.526577e-01  -2.335183e-02   6.602689e-03   3.090725e-02   6.842423e-01   6.669296e-01   2.949870e-01   7.260879e-01  -6.607029e-01  -1.904415e-01  -6.788771e-02  -3.444947e-01   9.363304e-01
   5.109311e-03   1.488953e-02   1.420031e-02   1.590428e+03   6.662177e-01   3.894173e-01   2.035796e-01   3.212888e-01   5.356407e-03   2.669504e-02  -9.928999e-03  -4.540054e+00  -4.022804e+00  -9.735361e-01  -2.120604e+00  -5.483151e-01  -9.493235e-01  -2.287330e+04  -2.287070e+04  -8.158677e+03  -8.447843e+04   2.875844e+02   1.506299e+04  -2.287281e+04  -6.471080e+04   1.684844e+04  -1.042459e+05  -2.287032e+04  -1.069544e+04  -1.627326e+04   4.082192e+04  -8.158702e+03  -2.287298e+04  -6.471090e+04   1.684842e+04  -1.042459e+05  -2.287047e+04  -1.069548e+04  -1.627328e+04   4.082190e+04  -8.158738e+03   9.635955e-01   6.958070e-02  -1.052674e-01   1.017090e-01   9.305349e-01   1.569076e-01   2.471025e-01  -1.299069e-02   1.243245e+00   9.870589e-01  -8.799301e-04  -1.603557e-01   1.425622e-02   9.965069e-01   8.228497e-02   1.597232e-01  -8.350618e-02   9.836235e-01   9.920435e-01   9.283080e-01   1.252677e+00   7.987125e-02   9.690688e-02   5.263343e-02  -3.969501e-05  -6.454728e-02   2.906801e-01   7.924070e-02   1.108664e-01   6.126639e-02   7.536439e-02   2.784121e-01  -4.506357e-02  -8.466789e-02   1.780614e-01   8.261971e-02   2.536689e-02   7.025725e-02   1.610998e-02   2.080670e-01   7.118882e-02  -2.113995e-02  -5.767005e-02  -3.543578e-03   2.421869e-02   1.031279e-01  -7.360683e-03   5.038799e-02  -5.812925e-02   7.118882e-02   2.421869e-02  -5.812925e-02  -1.234177e-02  -3.251536e-02   7.675794e-02  -8.798187e-03  -2.515468e-02   2.636995e-02   7.051526e+00   1.360038e+05   1.360036e+05   1.360037e+05   1.858006e+00   1.858006e+00   1.613914e-01   1.524339e-01   5.301963e-02  -3.178798e+00   4.642460e+00  -6.076251e+00  -2.672259e+00  -7.878838e-01   7.417423e-01   6.477780e-01   1.737875e-01   6.686966e-01  -7.342227e-01  -1.173112e-01  -5.160711e-02  -2.032257e-01   9.777709e-01  -1.297636e+05  -2.120357e+04   9.706447e+04  -6.783839e-01  -7.191039e-01   1.506150e-01   3.626083e-01  -1.494065e-01   9.198875e-01   6.389918e-01  -6.786511e-01  -3.621080e-01  -1.067361e-01   4.486453e-02   9.914981e-02   1.231695e-01  -4.931614e-01   8.611743e-01  -6.764152e-01  -6.766935e-01  -2.907721e-01   7.261486e-01  -5.466971e-01  -4.169298e-01
   1.488983e-02   5.108421e-03   4.877727e-03   1.704186e+03   5.549947e-01   4.130443e-01   3.716715e-01   1.956764e-01  -3.752727e-02   1.090269e-02  -2.856616e-02  -9.543227e+00  -8.377731e+00  -5.189945e+00  -4.590388e+00  -3.880624e+00  -1.016570e+00   1.810297e+04  -4.424651e+04  -4.263351e+03   5.747750e+03   4.162209e+04  -9.988169e+03   1.810357e+04  -3.901353e+04   1.107835e+05   5.051068e+04  -4.424879e+04   5.307150e+04  -2.754157e+04  -7.305166e+04  -4.262728e+03   1.810400e+04  -3.901332e+04   1.107837e+05   5.051087e+04  -4.424841e+04   5.307156e+04  -2.754142e+04  -7.305163e+04  -4.262495e+03   9.911600e-01  -5.060709e-02   6.918253e-02   5.140216e-04   1.067248e+00  -4.912488e-03  -8.826016e-03   5.461700e-02   8.087027e-01   9.987344e-01  -2.509518e-02   4.358768e-02   2.645726e-02   9.991704e-01  -3.095854e-02  -4.277461e-02   3.207257e-02   9.985698e-01   9.902967e-01   1.069384e+00   8.107137e-01  -2.464282e-02   3.437306e-02   1.929261e-02  -8.761854e-03   7.228083e-02  -1.705948e-01  -2.504659e-02   3.071540e-02   1.771248e-02  -3.569193e-02   1.513299e-01  -8.220600e-03   5.799160e-02  -2.665969e-01  -2.576318e-02   3.649981e-02   3.827869e-02  -7.227530e-02   2.093734e-01  -2.660793e-02   1.758866e-01  -6.595626e-02   3.402081e-03  -1.426101e-01   4.134582e-02  -2.314829e-02  -2.402452e-01   1.243209e-01  -2.660793e-02  -1.426101e-01   1.243209e-01   8.964434e-02  -4.455227e-02  -9.944971e-02   8.624226e-02  -2.140399e-02   1.407955e-01   1.622457e+01   1.660174e+05   1.660178e+05   1.660178e+05   1.669086e+00   1.669086e+00   3.629908e-01   2.762677e-01   2.354538e-01  -7.703635e+00   1.045275e+01  -1.440303e+01  -6.014814e+00  -2.693055e+00  -7.485346e-01  -5.794771e-01  -3.223388e-01   2.949734e-01  -7.263563e-01   6.208037e-01  -5.938743e-01   3.696117e-01   7.146331e-01  -1.051929e+05  -1.614955e+04   9.093553e+04   2.160298e-01  -8.180065e-01  -5.331009e-01  -7.711436e-01   1.919552e-01  -6.070344e-01   5.988896e-01   5.422348e-01  -5.893324e-01  -2.060541e-01  -2.159715e-02   1.827542e-01  -3.928802e-01   8.938418e-01   2.160835e-01  -8.548905e-01  -2.684319e-01  -4.439668e-01   3.388324e-01   3.591535e-01  -8.695984e-01
   1.488983e-02   5.108421e-03   1.420031e-02   1.315364e+03   1.014651e+00   3.152233e-01   3.558099e-01   2.977168e-01   1.457412e-02   2.806939e-02  -6.001906e-02  -3.237197e+00  -2.272448e+00  -2.640774e-01  -1.200361e+00  -2.010205e-01   2.891221e-02  -1.456904e+04  -2.177747e+04   7.183758e+02  -1.213905e+04  -5.181287e+03  -1.067512e+04  -1.456941e+04  -2.801557e+04  -1.305894e+04   3.736902e+03  -2.177772e+04   2.534480e+03   2.695394e+03  -2.388507e+04   7.182821e+02  -1.456891e+04  -2.801534e+04  -1.305890e+04   3.737047e+03  -2.177738e+04   2.534493e+03   2.695415e+03  -2.388509e+04   7.183225e+02   1.082148e+00  -6.437772e-02  -7.051211e-01  -2.185824e-01   8.914561e-01   4.427169e-01  -3.662091e-01  -9.955530e-02   1.887103e+00   9.936864e-01   4.688092e-02  -1.019285e-01  -2.790772e-02   9.832409e-01   1.801626e-01   1.086665e-01  -1.761805e-01   9.783415e-01   1.041621e+00   8.910377e-01   1.997864e+00  -9.966811e-02  -5.079597e-01   6.976991e-02   1.764654e-01  -9.562509e-02   1.627175e+00  -1.140324e-01  -7.754447e-01   1.260929e-01   5.693385e-01   1.408540e+00  -1.130143e-01  -1.269805e-01   2.347066e-01  -1.594934e-01  -2.490682e-01   6.583887e-02  -1.762716e-03   4.223662e-01  -1.472051e-02  -1.287918e-01   8.107884e-02   4.472825e-02  -8.164260e-02  -1.027148e-01  -1.569212e-01   1.094232e-02  -5.678475e-02  -1.472051e-02  -8.164260e-02  -5.678475e-02  -4.203180e-02  -3.792118e-02  -4.588625e-02  -8.676005e-02   1.190000e-01  -5.682857e-02   4.341224e+00   4.733447e+04   4.733509e+04   4.733466e+04   2.532989e+00   2.532989e+00   2.656366e-01   1.439694e-01   2.232389e-01  -1.924574e+00   3.111543e+00  -3.813919e+00  -1.721532e+00  -2.382717e-01   8.535889e-01   5.208331e-01   1.090054e-02   5.151706e-01  -8.470464e-01   1.308110e-01  -7.736399e-02   1.060432e-01   9.913474e-01  -3.783965e+04  -1.366224e+04   1.587377e+04  -1.939269e-01   8.278451e-01   5.263695e-01   9.809735e-01   1.686365e-01   9.619144e-02  -9.133526e-03   5.350086e-01  -8.447972e-01  -1.418343e-01  -2.218269e-02   1.086916e-02   4.061333e-01   7.162334e-01   5.675080e-01  -1.102992e-01   6.549139e-01  -7.476107e-01  -9.071327e-01   2.410340e-01   3.449823e-01
   1.488983e-02   1.488953e-02   4.877727e-03   1.575750e+03   6.817394e-01   3.407234e-01   3.072032e-01   3.332054e-01  -1.377439e-02  -2.071254e-02  -1.382515e-04  -2.015447e+00  -2.089838e+00  -2.448597e+00   4.452788e-01  -3.563914e-01  -5.157016e-01   3.933726e+03  -1.120879e+04  -1.233575e+04  -7.870184e+03  -3.996652e+04  -2.383277e+04   3.933702e+03  -1.203525e+04  -5.685299e+04  -3.705267e+03  -1.120877e+04  -3.287263e+04  -2.308052e+04  -1.479311e+04  -1.233603e+04   3.933773e+03  -1.203527e+04  -5.685298e+04  -3.705279e+03  -1.120870e+04  -3.287262e+04  -2.308050e+04  -1.479309e+04  -1.233594e+04   1.114109e+00   4.224467e-02  -1.388010e-01  -1.324950e-01   8.718155e-01   1.189527e-01   2.662802e-02  -1.368182e-01   1.108723e+00   9.940233e-01   8.736571e-02  -6.545990e-02  -7.859223e-02   9.888679e-01   1.263467e-01   7.576957e-02  -1.204469e-01   9.898240e-01   1.119881e+00   8.822805e-01   1.121556e+00  -3.689240e-02  -6.331274e-02  -2.804020e-02   1.297517e-01  -1.097169e-01   1.313410e-01  -3.604462e-02  -7.043852e-02  -2.692611e-02   5.045856e-02   1.870066e-01   9.302937e-02  -1.419171e-01   9.523490e-02  -6.494973e-02  -4.189873e-02  -2.095722e-03   1.544905e-02   1.809334e-01  -9.505514e-03  -3.005188e-02  -1.757748e-02   8.525113e-03   1.733668e-02  -4.591493e-02  -8.044294e-02  -7.841993e-03  -4.292773e-02  -9.505514e-03   1.733668e-02  -4.292773e-02  -1.076338e-02  -4.901021e-02  -2.687846e-02  -1.928849e-02   3.143273e-02  -1.903647e-02   3.954724e+00   7.427131e+04   7.427169e+04   7.427165e+04   1.817347e+00   1.817347e+00   1.102688e-01   9.335047e-02   5.869326e-02  -2.184628e+00   1.380949e+00  -2.869420e+00  -2.375119e+00  -1.309345e+00  -2.258665e-01  -4.843711e-01  -8.452035e-01  -7.667133e-01   6.236160e-01  -1.524919e-01   6.009451e-01   6.135860e-01  -5.122277e-01  -3.675258e+04  -4.198841e+03   2.134060e+04   4.626921e-01   4.935837e-01   7.364042e-01  -4.411384e-01   8.487138e-01  -2.916877e-01  -7.689687e-01  -1.898946e-01   6.104320e-01  -8.570457e-02   1.865374e-02   3.195426e-02  -5.478507e-01  -2.642743e-01  -7.937371e-01  -6.797481e-01   6.936841e-01   2.382119e-01  -4.876495e-01  -6.700459e-01   5.596753e-01
   1.488983e-02   1.488953e-02   1.420031e-02   1.409203e+03   8.804957e-01   3.915492e-01   3.005173e-01   3.079335e-01  -1.605517e-02  -5.688192e-02   3.120238e-03  -7.621345e-01  -9.909624e-01  -2.273988e-01  -5.913408e-02   1.395672e-01   1.762059e-01  -1.030638e+04  -3.812978e+04  -7.505209e+03   3.158142e+05   5.434168e+04   3.547951e+05  -1.030646e+04   2.804809e+04   1.494171e+05   6.035802e+05  -3.812988e+04   1.004368e+05  -4.073376e+04   6.091536e+05  -7.505196e+03  -1.030643e+04   2.804811e+04   1.494171e+05   6.035802e+05  -3.812983e+04   1.004368e+05  -4.073377e+04   6.091536e+05  -7.505185e+03   4.158628e-01   3.755657e-01  -1.482107e-03   7.489769e-01   3.582860e-01  -1.446569e-01   2.004353e-02   1.516491e-02   1.046918e+00   5.193459e-02   9.985550e-01   1.381098e-02   9.942086e-01  -5.039573e-02  -9.491813e-02   9.408496e-02  -1.866053e-02   9.953893e-01   7.681228e-01   3.566840e-01   1.055801e+00   3.771426e-01  -4.539690e-02  -1.372592e-02  -1.328450e-01  -3.651758e-01   5.848242e-02   2.124178e-01  -4.398855e-02  -1.825438e-02  -1.465128e-01   3.510009e-01  -1.930380e+01  -8.448084e+00  -1.208692e-01   1.276522e+01   1.750170e+00  -1.214116e+00  -9.290917e+00   1.861959e+01   1.245768e-03  -5.114461e-02   2.727224e-01  -4.200854e-02  -8.318975e-02  -1.828403e-01  -1.217060e-01   1.033109e-01   3.453839e-02   1.245768e-03  -8.318975e-02   3.453839e-02  -4.657657e-02   7.550822e-02  -3.976468e-02  -4.568037e-03   1.972142e-01  -1.430756e-01   1.354849e+00   8.785514e+05   8.785514e+05   8.785514e+05   1.456339e+00   1.456339e+00   3.818233e-01   1.643751e-01   3.446301e-01  -6.601652e-01   9.038513e-01  -1.123788e+00  -7.616801e-01  -9.502782e-02  -2.799736e-01   9.191682e-01  -2.770281e-01  -9.379337e-01  -2.003739e-01   2.830735e-01   2.046830e-01   3.390871e-01   9.182183e-01  -9.014397e+05   3.181304e+04   8.136853e+05  -5.003205e-01   7.047319e-01  -5.030233e-01  -7.104671e-01  -2.085930e-03   7.037273e-01  -4.948898e-01  -7.094707e-01  -5.017325e-01  -1.042421e-01  -5.683887e-02   1.136754e-01   3.602236e-01   9.301954e-01   7.053640e-02  -7.025107e-01   2.207472e-01   6.765718e-01   6.137733e-01  -2.932697e-01   7.329906e-01
