     VARIABLES=
              x              y              z      nomin_den    nomin_voidr      fabric_xx      fabric_yy      fabric_zz      fabric_xy      fabric_xz      fabric_yz       sigma_xx       sigma_yy       sigma_zz       sigma_xy       sigma_xz       sigma_yz    sigmaDot_xx    sigmaDot_yy    sigmaDot_zz    sigmaDot_xy    sigmaDot_xz    sigmaDot_yz       Oldro_xx       Oldro_xy       Oldro_xz       Oldro_yx       Oldro_yy       Oldro_yz       Oldro_zx       Oldro_zy       Oldro_zz       Trues_xx       Trues_xy       Trues_xz       Trues_yx       Trues_yy       Trues_yz       Trues_zx       Trues_zy       Trues_zz           F_xX           F_xY           F_xZ           F_yX           F_yY           F_yZ           F_zX           F_zY           F_zZ           R_xX           R_xY           R_xZ           R_yX           R_yY           R_yZ           R_zX           R_zY           R_zZ           U_xX           U_yY           U_zZ           U_xY           U_xZ           U_yZ       Green_xx       Green_yy       Green_zz       Green_xy       Green_xz       Green_yz      Green_vol      Green_shr       Euler_xx       Euler_yy       Euler_zz       Euler_xy       Euler_xz       Euler_yz      Euler_vol      Euler_shr           l_xx           l_xy           l_xz           l_yx           l_yy           l_yz           l_zx           l_zy           l_zz           d_xx           d_yy           d_zz           d_xy           d_xz           d_yz           w_xy           w_xz           w_yz     norm_sigma  norm_sigmaDot     norm_Oldro     norm_Trues         norm_F         norm_U         norm_l         norm_d         norm_w              p              q        sigma_1        sigma_2        sigma_3     sigma_1_v1     sigma_1_v2     sigma_1_v3     sigma_2_v1     sigma_2_v2     sigma_2_v3     sigma_3_v1     sigma_3_v2     sigma_3_v3     sigmaDot_1     sigmaDot_2     sigmaDot_3  sigmaDot_1_v1  sigmaDot_1_v2  sigmaDot_1_v3  sigmaDot_2_v1  sigmaDot_2_v2  sigmaDot_2_v3  sigmaDot_3_v1  sigmaDot_3_v2  sigmaDot_3_v3            d_1            d_2            d_3         d_1_v1         d_1_v2         d_1_v3         d_2_v1         d_2_v2         d_2_v3         d_3_v1         d_3_v2         d_3_v3
ZONE I=2, J=2, K=2, DATAPACKING=POINT, STRANDID=5, SOLUTIONTIME=49
   5.121811e-03   5.120921e-03   4.890227e-03   1.585325e+03   6.715817e-01   3.926418e-01   3.093061e-01   2.908579e-01  -1.986046e-02  -3.195024e-02   2.959459e-03  -6.134053e+02  -4.728182e+02  -3.615981e+02   2.274709e+01   1.651885e+02   5.950557e+01  -1.077119e+05   1.188856e+05   1.623041e+05   2.050786e+05   4.947421e+05   1.060492e+05  -1.077187e+05  -1.203906e+05   8.463271e+05   5.305176e+05   1.188841e+05   3.534936e+05   1.431513e+05  -1.413663e+05   1.623021e+05  -1.077125e+05  -1.203909e+05   8.463254e+05   5.305174e+05   1.188889e+05   3.534930e+05   1.431496e+05  -1.413669e+05   1.623058e+05   1.035063e+00   2.505787e-03   2.981122e-02   1.579538e-02   9.876091e-01   2.311856e-03   5.254239e-03  -1.010819e-03   1.040504e+00   9.999086e-01  -6.569294e-03   1.182066e-02   6.551222e-03   9.999773e-01   1.566884e-03  -1.183069e-02  -1.489300e-03   9.999289e-01   1.035010e+00   9.875717e-01   1.040786e+00   8.987563e-03   1.751375e-02   5.663410e-04   3.581673e-02  -1.231051e-02   4.177159e-02   9.094000e-03   1.818004e-02   6.530741e-04   2.175927e-02   4.152218e-02   3.299833e-02  -1.266647e-02   3.765248e-02   9.019427e-03   1.571191e-02   4.019409e-04   1.932811e-02   3.832373e-02  -4.722710e-03   4.042577e-03   2.529801e-03  -1.773932e-02   2.251361e-03   3.690526e-02  -9.416397e-03  -4.873252e-03  -7.766279e-03  -4.722710e-03   2.251361e-03  -7.766279e-03  -6.848374e-03  -3.443298e-03   1.601600e-02   1.089095e-02   5.973099e-03   2.088926e-02   8.906612e+02   1.108935e+06   1.108930e+06   1.108929e+06   1.769338e+00   1.769338e+00   4.358359e-02   2.679973e-02   3.437010e-02  -4.826072e+02   3.739436e+02  -6.941207e+02  -4.911212e+02  -2.625797e+02   8.945436e-01   3.279076e-02  -4.457762e-01   1.551718e-01  -9.580624e-01   2.409109e-01  -4.191818e-01  -2.846772e-01  -8.621169e-01  -5.902039e+05   2.144700e+05   5.492116e+05  -7.484528e-01   6.112709e-01   2.572280e-01  -2.360009e-01   1.169836e-01  -9.646857e-01  -6.197757e-01  -7.827277e-01   5.670373e-02  -1.966242e-02  -7.270962e-03   1.669575e-02  -9.628607e-02  -6.067640e-01   7.890288e-01  -9.378758e-01  -2.101729e-01  -2.760732e-01   3.333437e-01  -7.665930e-01  -5.488326e-01
   5.121811e-03   5.120921e-03   1.418781e-02   1.565503e+03   6.927464e-01   2.853844e-01   3.668033e-01   3.368233e-01  -3.456520e-02  -3.018509e-02  -6.318179e-03  -2.059559e+02  -2.860518e+02  -3.448357e+02   4.234394e+01   5.463938e+01  -2.944217e+01  -3.183299e+05  -1.632816e+05  -2.911752e+05   5.529339e+05  -1.575140e+05   8.954898e+04  -3.183109e+05   1.679575e+05  -2.445047e+05   9.379072e+05  -1.632836e+05  -2.514365e+05  -7.057475e+04   4.305214e+05  -2.912118e+05  -3.183048e+05   1.679562e+05  -2.445062e+05   9.379060e+05  -1.632753e+05  -2.514357e+05  -7.057638e+04   4.305223e+05  -2.912017e+05   1.018255e+00  -2.505464e-01   3.908336e-01   2.115181e-01   9.504220e-01  -9.891612e-01  -3.862358e-01   8.020170e-01   3.445241e-01   9.289367e-01   1.562319e-02   3.699089e-01   2.819783e-01   6.176015e-01  -7.342048e-01  -2.399269e-01   7.863360e-01   5.693072e-01   1.098206e+00   1.213723e+00   1.066960e+00  -1.571688e-01   1.477106e-03  -3.338896e-01   1.153804e-01   3.046534e-01   1.249439e-01  -1.819281e-01   2.783761e-02  -3.808642e-01   1.816592e-01   5.037180e-01  -5.516640e-03   2.133507e-01  -1.921242e-01  -6.683704e-02  -2.300663e-01   7.318327e-02   5.236624e-03   3.722771e-01   3.096701e-02   1.537915e-02  -6.944379e-02  -1.597587e-02  -5.131840e-03  -7.633548e-03  -1.993415e-02  -1.340202e-02  -5.508982e-02   3.096701e-02  -5.131840e-03  -5.508982e-02  -2.983600e-04  -4.468897e-02  -1.051779e-02   1.567751e-02  -2.475482e-02   2.884238e-03   5.044323e+02   1.197489e+06   1.197497e+06   1.197491e+06   2.022364e+00   2.022364e+00   9.984800e-02   9.075139e-02   4.163903e-02  -2.789478e+02   1.789499e+02  -3.841186e+02  -2.751342e+02  -1.775907e+02   3.593265e-01  -4.158610e-01  -8.354305e-01   1.319887e-01  -8.635743e-01   4.866400e-01   9.238309e-01   2.851300e-01   2.554162e-01  -1.302872e+06  -2.423113e+05   7.723965e+05  -6.630332e-01   6.710419e-01  -3.317977e-01   4.193153e-01  -3.425274e-02  -9.071943e-01  -6.201303e-01  -7.406278e-01  -2.586674e-01  -7.546460e-02  -4.035669e-03   5.024561e-02   3.837581e-01   1.381667e-01   9.130387e-01  -1.187330e-01   9.879188e-01  -9.959347e-02   9.157687e-01   7.018807e-02  -3.955268e-01
   5.121811e-03   1.487703e-02   4.890227e-03   1.567514e+03   6.905747e-01   3.445346e-01   3.598946e-01   2.875062e-01   2.089377e-02  -1.333644e-02  -8.859494e-04  -4.050415e+02  -5.246719e+02  -2.932905e+02   8.276513e+01   3.061415e+01  -2.290627e+01  -3.176015e+05   1.154845e+05   5.594321e+04   6.303821e+05   2.174091e+05  -1.531644e+05  -3.175997e+05   1.297192e+05   4.065193e+05   1.131041e+06   1.154607e+05   1.221041e+04   2.827460e+04  -3.185463e+05   5.594693e+04  -3.175924e+05   1.297177e+05   4.065187e+05   1.131039e+06   1.154702e+05   1.221082e+04   2.827404e+04  -3.185459e+05   5.595223e+04   1.003765e+00   4.391376e-03   1.815310e-04  -1.557046e-02   1.004222e+00   4.621532e-02   3.388768e-02   4.967689e-02   1.018937e+00   9.998037e-01   1.031471e-02  -1.691872e-02  -1.034296e-02   9.999453e-01  -1.583050e-03   1.690147e-02   1.757729e-03   9.998556e-01   1.004302e+00   1.004300e+00   1.018713e+00  -5.156500e-03   1.692501e-02   4.800568e-02   4.467380e-03   5.474774e-03   2.018378e-02  -4.772429e-03   1.699601e-02   4.851443e-02   1.004198e-02   6.047243e-02   3.090450e-03   8.515309e-04   1.521968e-02  -7.140388e-03   1.707688e-02   4.644475e-02   6.387221e-03   5.841784e-02  -4.348664e-03  -2.997911e-02  -5.912757e-03   2.929917e-02  -1.804352e-02  -6.477258e-05  -2.583296e-02  -8.462126e-03   4.315011e-03  -4.348664e-03  -1.804352e-02   4.315011e-03  -3.399662e-04  -1.587286e-02  -4.263449e-03  -2.963914e-02   9.960100e-03   4.198677e-03   7.361948e+02   1.296576e+06   1.296568e+06   1.296566e+06   1.749358e+00   1.749358e+00   5.379778e-02   3.005959e-02   4.461639e-02  -4.076680e+02   2.555116e+02  -5.715030e+02  -3.661313e+02  -2.853695e+02   4.610029e-01  -8.786411e-01  -1.243630e-01   8.537173e-01   4.773725e-01  -2.080441e-01  -2.421636e-01   1.026191e-02  -9.701812e-01  -1.290783e+06   4.352904e+04   1.101080e+06  -7.494094e-01   6.406297e-01   1.672696e-01  -2.669736e-01  -6.118887e-02  -9.617593e-01  -6.058966e-01  -7.654080e-01   2.168867e-01  -2.039779e-02  -1.440916e-02   1.672978e-02  -4.241674e-01  -8.066391e-01  -4.116010e-01  -6.799971e-01   5.838765e-01  -4.434999e-01   5.980685e-01   9.176935e-02  -7.961736e-01
   5.121811e-03   1.487703e-02   1.418781e-02   1.582567e+03   6.744945e-01   3.466715e-01   3.317808e-01   3.215477e-01   5.444823e-02  -2.225764e-02   4.709192e-02  -2.283955e+02  -2.643259e+02  -3.148584e+02  -5.075743e+01  -2.707714e+00  -5.624033e+01  -6.916847e+04   5.874049e+04   3.347085e+04  -2.730199e+05  -1.430840e+05  -4.750799e+04  -6.916876e+04  -4.331434e+05  -2.785932e+05  -1.128858e+05   5.873369e+04  -2.323641e+05  -7.552865e+03   1.373430e+05   3.347003e+04  -6.916473e+04  -4.331426e+05  -2.785932e+05  -1.128848e+05   5.873835e+04  -2.323631e+05  -7.552787e+03   1.373440e+05   3.347559e+04   9.776710e-01   5.765974e-02  -1.595435e-01   1.275712e-01   9.650567e-01   9.675371e-02   2.636962e-01   2.605891e-02   1.232883e+00   9.816291e-01  -2.463794e-02  -1.892015e-01   3.202013e-02   9.988365e-01   3.606009e-02   1.880930e-01  -4.145589e-02   9.812759e-01   1.013395e+00   9.614329e-01   1.243473e+00   9.240323e-02   7.838214e-02   4.946169e-02   2.082534e-02  -3.233095e-02   2.774082e-01   9.317867e-02   9.073429e-02   5.815058e-02   8.863419e-02   2.522686e-01  -2.326462e-02  -4.846374e-02   1.786661e-01   8.818705e-02   1.072740e-02   5.794545e-02   3.564591e-02   1.888546e-01  -3.170426e-03   1.002952e-02   2.531414e-02   9.863032e-03  -1.704315e-02   1.072309e-02   1.550545e-02  -2.245526e-02   2.574774e-03  -3.170426e-03  -1.704315e-02   2.574774e-03   9.946275e-03   2.040979e-02  -5.866087e-03   8.324300e-05   4.904342e-03   1.658917e-02   4.823999e+02   6.002088e+05   6.001983e+05   6.001977e+05   1.879310e+00   1.879310e+00   4.478246e-02   3.750931e-02   2.446467e-02  -2.691933e+02   1.567375e+02  -3.613981e+02  -2.656654e+02  -1.805163e+02   2.733510e-01   5.969311e-01   7.542894e-01  -6.352708e-01  -4.767872e-01   6.075400e-01   7.222951e-01  -6.452497e-01   2.488826e-01  -1.622957e+05  -2.810071e+04   2.134393e+05   6.957515e-01   6.003660e-01  -3.943228e-01  -6.457666e-01   2.824465e-01  -7.093726e-01   3.145082e-01  -7.481875e-01  -5.842089e-01  -3.053061e-02  -7.549276e-03   2.044109e-02  -5.931266e-01   6.462423e-01   4.801788e-01   4.504628e-01   7.606986e-01  -4.673553e-01   6.672961e-01   6.089818e-02   7.422987e-01
   1.487733e-02   5.120921e-03   4.890227e-03   1.703237e+03   5.558611e-01   4.051241e-01   3.223027e-01   2.725732e-01  -6.293023e-03  -3.279422e-03  -2.297654e-02  -1.044697e+03  -5.935575e+02  -4.437874e+02  -4.515727e+01  -5.500418e+01   1.078639e+02  -2.159271e+05  -3.109927e+05  -2.016242e+05  -2.019184e+05   1.759600e+05   6.353504e+04  -2.159483e+05  -1.210106e+05   2.456002e+05  -2.829613e+05  -3.110306e+05  -5.286628e+04   1.062432e+05   1.799297e+05  -2.016307e+05  -2.159058e+05  -1.210088e+05   2.456024e+05  -2.829595e+05  -3.110064e+05  -5.287072e+04   1.062455e+05   1.799254e+05  -2.016126e+05   9.582616e-01  -5.483396e-02   4.659091e-02   2.884017e-02   1.038118e+00   1.684252e-02  -2.495523e-02   7.984760e-02   7.620659e-01   9.981718e-01  -4.229006e-02   4.318039e-02   4.377121e-02   9.984645e-01  -3.395205e-02  -4.167825e-02   3.578004e-02   9.984902e-01   9.588122e-01   1.041699e+00   7.623553e-01  -1.262196e-02   1.548138e-02   4.211307e-02  -4.014006e-02   4.353534e-02  -2.084006e-01  -1.229920e-02   1.305725e-02   3.788944e-02  -6.833511e-02   1.558697e-01  -4.198981e-02   2.940862e-02  -3.631503e-01  -1.512092e-02   9.096062e-03   7.625506e-02  -1.252438e-01   2.578120e-01  -9.202695e-03  -2.654431e-02   4.407917e-03  -4.908788e-02  -2.350816e-02   2.564694e-02  -3.940542e-02  -2.292606e-02  -7.997026e-03  -9.202695e-03  -2.350816e-02  -7.997026e-03  -3.781610e-02  -1.749875e-02   1.360439e-03   1.127179e-02   2.190667e-02   2.428650e-02   1.293854e+03   6.208494e+05   6.208993e+05   6.208657e+05   1.609344e+00   1.609344e+00   8.106222e-02   6.463361e-02   4.892422e-02  -6.940140e+02   5.861529e+02  -1.052809e+03  -6.486853e+02  -3.805474e+02   9.937350e-01   7.882450e-02   7.923038e-02  -3.259612e-02   8.825119e-01  -4.691591e-01  -1.069030e-01   4.636372e-01   8.795523e-01  -6.461842e+05  -1.134607e+05   3.110086e+04  -5.685662e-01  -7.062763e-01   4.217893e-01   4.407587e-01   1.713826e-01   8.811128e-01  -6.945964e-01   6.868783e-01   2.138550e-01  -5.704556e-02  -1.170386e-02   2.804154e-02  -6.526081e-01  -7.272414e-01  -2.126559e-01   1.590835e-01  -4.059180e-01   8.999572e-01  -7.408070e-01   5.534894e-01   3.805975e-01
   1.487733e-02   5.120921e-03   1.418781e-02   1.444340e+03   8.347484e-01   3.669709e-01   3.260962e-01   3.069329e-01   5.410839e-03   1.747018e-02   9.876722e-03  -1.214302e+02  -1.014166e+02  -9.854293e+01  -9.569613e+00  -9.415934e+00   9.778239e+00   2.555123e+05   1.507489e+05   3.702057e+04   4.195670e+05   6.649552e+04  -1.103538e+06   2.554983e+05   9.111506e+04   3.038910e+05   7.480385e+05   1.507590e+05  -1.404453e+05  -1.709137e+05  -2.066613e+06   3.702187e+04   2.554976e+05   9.111498e+04   3.038910e+05   7.480385e+05   1.507584e+05  -1.404453e+05  -1.709138e+05  -2.066613e+06   3.702131e+04   1.207069e+00  -4.178097e-01  -6.509343e-01  -1.751253e-01   1.171318e+00   4.578656e-01  -5.521859e-01  -6.754445e-02   1.956748e+00   9.891084e-01  -1.460876e-01  -1.797105e-02   1.468176e-01   9.705663e-01   1.909073e-01  -1.044709e-02  -1.914665e-01   9.814436e-01   1.173979e+00   1.210812e+00   2.019546e+00  -2.405833e-01  -5.970643e-01   1.648307e-01   3.962964e-01   2.755571e-01   1.731110e+00  -3.360777e-01  -9.731975e-01   3.380528e-01   8.009877e-01   1.560697e+00  -3.414005e-02   5.626359e-02   2.880803e-01  -2.183861e-01  -1.985794e-01  -2.947938e-03   1.034013e-01   3.911656e-01  -5.995615e-02   3.661258e-02  -9.344828e-03   4.423787e-02   5.215493e-02   7.033021e-02  -4.457113e-02   2.644829e-02   1.350091e-02  -5.995615e-02   5.215493e-02   1.350091e-02   4.042522e-02  -2.695798e-02   4.838925e-02  -3.812645e-03   1.761315e-02   2.194096e-02   1.879476e+02   2.251543e+06   2.251537e+06   2.251536e+06   2.793909e+00   2.793909e+00   1.323419e-01   1.261033e-01   4.015383e-02  -1.071299e+02   3.574446e+01  -1.253214e+02  -1.113642e+02  -8.470410e+01   9.451928e-01   8.864762e-02   3.142485e-01   1.283155e-01   7.841569e-01  -6.071516e-01   3.002427e-01  -6.141983e-01  -7.298046e-01  -2.045944e+06   1.210616e+05   2.368164e+06   1.784805e-01  -7.057708e-01  -6.855890e-01  -9.367988e-01   9.120768e-02  -3.377709e-01   3.009198e-01   7.025445e-01  -6.448864e-01  -9.035594e-02   8.502430e-03   8.755321e-02   8.416653e-01  -3.717419e-01   3.916728e-01   5.212526e-01   3.698393e-01  -7.690999e-01  -1.410506e-01  -8.514851e-01  -5.050523e-01
   1.487733e-02   1.487703e-02   4.890227e-03   1.576052e+03   6.814163e-01   3.556732e-01   3.510966e-01   2.819942e-01  -1.970269e-04  -2.903621e-02   3.110315e-02  -2.845589e+02  -3.835935e+02  -1.407482e+02   7.998251e+01   1.130350e+01  -2.680579e+01  -8.794241e+04  -3.033264e+05   2.183357e+05   1.979252e+05  -1.790713e+05  -1.911895e+05  -8.795072e+04   4.687997e+04  -2.007999e+05   3.490096e+05  -3.033515e+05  -3.043206e+05  -1.573378e+05  -7.804538e+04   2.183518e+05  -8.795629e+04   4.688153e+04  -2.007997e+05   3.490111e+05  -3.033590e+05  -3.043211e+05  -1.573376e+05  -7.804594e+04   2.183490e+05   9.402095e-01   4.207609e-02  -9.535660e-02  -1.475890e-02   8.824264e-01   1.964512e-01   1.659110e-01  -1.152122e-01   9.752418e-01   9.900810e-01   4.789016e-02  -1.320840e-01  -2.525977e-02   9.854698e-01   1.679619e-01   1.382085e-01  -1.629595e-01   9.769046e-01   9.541867e-01   8.903945e-01   9.983096e-01   3.445549e-03   3.541368e-02   3.010515e-02  -4.413092e-02  -1.031397e-01  -6.087621e-04   3.710865e-03   3.462440e-02   2.849087e-02  -4.929314e-02   7.893023e-02  -6.088527e-02  -1.174571e-01  -1.081852e-02  -4.212623e-04   3.291779e-02   5.447643e-02  -6.305364e-02   9.590213e-02  -8.535542e-03   2.476441e-02  -2.277331e-02   2.799046e-02  -2.848295e-02   2.204291e-02   2.286323e-02   1.248930e-02   5.662196e-02  -8.535542e-03  -2.848295e-02   5.662196e-02   2.637744e-02   4.496046e-05   1.726611e-02  -1.613023e-03  -2.281827e-02   4.776806e-03   5.122833e+02   6.596861e+05   6.597107e+05   6.597152e+05   1.644458e+00   1.644458e+00   8.467671e-02   7.796127e-02   3.304824e-02  -2.696335e+02   2.588734e+02  -4.317325e+02  -2.398813e+02  -1.372867e+02   4.834001e-01  -8.687089e-01  -1.080243e-01   8.745452e-01   4.846877e-01   1.576212e-02  -3.866534e-02   1.020915e-01  -9.940233e-01  -5.621304e+05   2.000271e+04   3.691946e+05  -6.011054e-01   7.980984e-01  -4.136625e-02  -5.877381e-01  -4.765552e-01  -6.538035e-01   5.415129e-01   3.686923e-01  -7.555328e-01  -4.864983e-02   7.840741e-03   6.041255e-02   5.442422e-01  -8.279040e-01   1.355559e-01   8.348801e-01   5.186449e-01  -1.843438e-01  -8.231360e-02  -2.135006e-01  -9.734690e-01
   1.487733e-02   1.487703e-02   1.418781e-02   1.468412e+03   8.046703e-01   4.185431e-01   2.645839e-01   2.714184e-01   2.953289e-02  -2.477681e-02  -6.033670e-03  -3.304758e+01  -2.691562e+01  -1.881371e+01  -5.813505e+00   3.773120e-01  -1.977284e-01   2.192767e+05  -5.067116e+04   1.129274e+05   1.467563e+05  -3.846147e+05  -4.679600e+05   2.192775e+05   1.823453e+05  -7.286889e+05   1.111773e+05  -5.067738e+04   3.100827e+04  -4.054242e+04  -9.669301e+05   1.129264e+05   2.192831e+05   1.823463e+05  -7.286892e+05   1.111783e+05  -5.067284e+04   3.100836e+04  -4.054224e+04  -9.669302e+05   1.129296e+05   9.577246e-01   2.013658e-01   4.714440e-01   5.506682e-01   6.610658e-01  -3.229310e-01   2.829822e-01  -8.676328e-02   6.552186e-01   9.581854e-01  -2.259383e-01   1.755921e-01   2.659662e-01   9.295786e-01  -2.552365e-01  -1.055589e-01   2.912654e-01   9.508006e-01   1.034266e+00   5.437452e-01   7.881878e-01   3.779256e-01   2.966778e-01  -2.158644e-01   1.502754e-01  -2.574580e-01  -1.220724e-01   2.661642e-01   2.295504e-01  -8.769741e-02  -7.641831e-02   4.821514e-01  -5.609641e+00  -3.733647e+00  -1.014397e+01   4.705279e+00   7.677415e+00  -6.046154e+00  -6.495752e+00   1.308945e+01  -2.605495e-03   8.623075e-02  -4.239874e-03   1.044753e-01  -1.381358e-01   6.813464e-04  -2.204725e-02  -2.585596e-02  -2.790963e-02  -2.605495e-03  -1.381358e-01  -2.790963e-02   9.535301e-02  -1.314356e-02  -1.258731e-02  -9.122265e-03   8.903689e-03   1.326865e-02   4.735868e+01   1.256007e+06   1.256010e+06   1.256011e+06   1.594205e+00   1.594205e+00   1.984719e-01   1.967588e-01   2.602109e-02  -2.625897e+01   1.627964e+01  -3.677669e+01  -2.331861e+01  -1.868161e+01   8.528231e-01   5.201881e-01   4.579495e-02   5.098327e-01  -8.483905e-01   1.424928e-01  -1.129751e-01   9.817340e-02   9.887359e-01  -9.418188e+05   2.079457e+05   1.015406e+06   4.705175e-02  -7.372105e-01  -6.740228e-01  -9.902529e-01   5.413022e-02  -1.283317e-01  -1.310925e-01  -6.734913e-01   7.274780e-01  -1.875186e-01  -3.163190e-02   5.049959e-02  -4.562443e-01   8.892587e-01   3.255892e-02  -2.081799e-01  -7.109243e-02  -9.755035e-01  -8.651602e-01  -4.518460e-01   2.175613e-01
