VARIABLES=
 x y z nomin_den nomin_voidr fabric_xx fabric_yy fabric_zz fabric_xy fabric_xz fabric_yz sigma_xx sigma_yy sigma_zz sigma_xy sigma_xz sigma_yz sigmaDot_xx sigmaDot_yy sigmaDot_zz sigmaDot_xy sigmaDot_xz sigmaDot_yz Oldro_xx Oldro_xy Oldro_xz Oldro_yx Oldro_yy Oldro_yz Oldro_zx Oldro_zy Oldro_zz Trues_xx Trues_xy Trues_xz Trues_yx Trues_yy Trues_yz Trues_zx Trues_zy Trues_zz F_xX F_xY F_xZ F_yX F_yY F_yZ F_zX F_zY F_zZ R_xX R_xY R_xZ R_yX R_yY R_yZ R_zX R_zY R_zZ U_xX U_yY U_zZ U_xY U_xZ U_yZ Green_xx Green_yy Green_zz Green_xy Green_xz Green_yz Green_vol Green_shr Euler_xx Euler_yy Euler_zz Euler_xy Euler_xz Euler_yz Euler_vol Euler_shr l_xx l_xy l_xz l_yx l_yy l_yz l_zx l_zy l_zz d_xx d_yy d_zz d_xy d_xz d_yz w_xy w_xz w_yz norm_sigma norm_sigmaDot norm_Oldro norm_Trues norm_F norm_U norm_l norm_d norm_w p q sigma_1 sigma_2 sigma_3 sigma_1_v1 sigma_1_v2 sigma_1_v3 sigma_2_v1 sigma_2_v2 sigma_2_v3 sigma_3_v1 sigma_3_v2 sigma_3_v3 sigmaDot_1 sigmaDot_2 sigmaDot_3 sigmaDot_1_v1 sigmaDot_1_v2 sigmaDot_1_v3 sigmaDot_2_v1 sigmaDot_2_v2 sigmaDot_2_v3 sigmaDot_3_v1 sigmaDot_3_v2 sigmaDot_3_v3 d_1 d_2 d_3 d_1_v1 d_1_v2 d_1_v3 d_2_v1 d_2_v2 d_2_v3 d_3_v1 d_3_v2 d_3_v3
ZONE T="stress" N=27, E=8, DATAPACKING=BLOCK, VARLOCATION=([4,5,6,7,8,9,10,11,12,13,14,15,16,17,18,19,20,21,22,23,24,25,26,27,28,29,30,31,32,33,34,35,36,37,38,39,40,41,42,43,44,45,46,47,48,49,50,51,52,53,54,55,56,57,58,59,60,61,62,63,64,65,66,67,68,69,70,71,72,73,74,75,76,77,78,79,80,81,82,83,84,85,86,87,88,89,90,91,92,93,94,95,96,97,98,99,100,101,102,103,104,105,106,107,108,109,110,111,112,113,114,115,116,117,118,119,120,121,122,123,124,125,126,127,128,129,130,131,132,133,134,135,136,137,138,139,140,141,142,143,144,145,146]=CELLCENTERED), ZONETYPE=FEBRICK, STRANDID=4, SOLUTIONTIME=2
   9.999950e-06   9.999950e-06   9.999950e-06   9.999950e-06   9.999950e-06   9.999950e-06   9.999950e-06   9.999950e-06   9.999950e-06   1.000000e-02   1.000000e-02   1.000000e-02   1.000000e-02   1.000000e-02   1.000000e-02   1.000000e-02   1.000000e-02   1.000000e-02   1.999000e-02   1.999000e-02   1.999000e-02   1.999000e-02   1.999000e-02   1.999000e-02   1.999000e-02   1.999000e-02   1.999000e-02
   9.999950e-06   9.999950e-06   9.999950e-06   1.000000e-02   1.000000e-02   1.000000e-02   1.999000e-02   1.999000e-02   1.999000e-02   9.999950e-06   9.999950e-06   9.999950e-06   1.000000e-02   1.000000e-02   1.000000e-02   1.999000e-02   1.999000e-02   1.999000e-02   9.999950e-06   9.999950e-06   9.999950e-06   1.000000e-02   1.000000e-02   1.000000e-02   1.999000e-02   1.999000e-02   1.999000e-02
   9.999950e-06   9.540746e-03   1.907149e-02   9.999950e-06   9.540746e-03   1.907149e-02   9.999950e-06   9.540746e-03   1.907149e-02   9.999950e-06   9.540746e-03   1.907149e-02   9.999950e-06   9.540746e-03   1.907149e-02   9.999950e-06   9.540746e-03   1.907149e-02   9.999950e-06   9.540746e-03   1.907149e-02   9.999950e-06   9.540746e-03   1.907149e-02   9.999950e-06   9.540746e-03   1.907149e-02
   1.592052e+03   1.349309e+03   1.395758e+03   1.423301e+03   1.665103e+03   1.452251e+03   1.436146e+03   1.308697e+03
   6.645188e-01   9.639685e-01   8.986101e-01   8.618686e-01   5.914930e-01   8.247538e-01   8.452164e-01   1.024915e+00
   3.219674e-01   2.778628e-01   3.072182e-01   3.438729e-01   3.103426e-01   4.207473e-01   3.654655e-01   4.155568e-01
   3.544795e-01   2.956057e-01   3.272635e-01   3.720504e-01   3.700490e-01   2.189278e-01   3.603398e-01   2.370043e-01
   2.623286e-01   4.265315e-01   3.427910e-01   2.314451e-01   2.583839e-01   3.603249e-01   2.741946e-01   2.705159e-01
  -2.496932e-02   2.208995e-02   2.379015e-02   7.699818e-02   2.406359e-02   9.882556e-02   1.160360e-02   3.969244e-02
  -1.265369e-02   7.019870e-02  -3.631931e-02   5.185268e-02   2.496028e-02   3.946380e-02  -1.562725e-02   1.014342e-01
   1.146061e-02  -1.352863e-02  -2.250608e-03  -1.058859e-02  -9.645998e-03  -1.216767e-02  -2.321728e-02   2.173927e-02
  -1.457310e+00  -1.869378e+00  -3.478963e+00  -8.366654e-01  -1.224771e+01  -2.312549e+00  -1.136841e+00  -2.189193e+00
  -3.523242e+00  -1.731704e-01  -1.318115e+00  -9.400879e-01  -9.230426e+00  -1.574663e+00  -1.144896e+00  -2.608372e+00
  -1.493726e+00  -1.340276e+00  -3.163809e+00  -1.559292e-01  -7.912209e+00  -5.341357e-02  -7.968791e-01  -1.624085e+01
   2.893952e-01  -2.695775e-01  -7.349099e-01  -3.981498e-01  -5.993985e+00  -1.062210e+00  -3.508797e-01   3.558630e+00
   3.199034e-01  -6.923540e-01   1.272768e+00   1.061135e-01  -3.968342e+00  -3.935042e-02  -1.907218e-02   4.078027e+00
   4.300014e-01   8.904248e-02   4.879355e-02   7.811492e-02  -1.073974e+00   8.173669e-03   1.847656e-01  -4.549667e+00
  -6.418199e+03   1.934234e+05  -4.120698e+04  -3.304393e+03  -2.367479e+04  -1.113690e+04  -8.262582e+03  -9.414138e+04
  -2.973798e+03  -7.210886e+04  -8.195458e+03   9.923913e+02  -2.201903e+04  -1.404643e+04  -8.066958e+03   5.994437e+04
  -5.471343e+03  -1.186479e+04  -4.059131e+04  -4.617021e+03   4.008450e+02  -1.855335e+02  -4.079599e+03   3.217586e+05
   2.153949e+04   2.835276e+05  -1.858800e+05  -2.410395e+04  -1.277800e+05  -2.780545e+04  -1.303749e+04  -1.612065e+05
   2.080612e+04   1.458827e+06   9.792436e+04  -1.053707e+04  -3.793990e+04   2.033305e+03  -3.665954e+03  -2.785850e+05
   4.154425e+04   6.719645e+04  -1.407014e+05   1.565339e+04   5.620796e+04  -6.495579e+03   6.819132e+03   2.250723e+05
  -6.418228e+03   1.934229e+05  -4.120700e+04  -3.304449e+03  -2.367406e+04  -1.113607e+04  -8.262751e+03  -9.414039e+04
   2.825738e+04  -3.034660e+05   1.116105e+05  -9.440721e+03  -6.853121e+04  -3.065368e+04   8.804458e+02  -8.123380e+04
   3.268753e+04   2.948990e+06   1.651889e+05  -2.574793e+04  -7.314185e+03   4.162609e+03   4.124761e+03  -3.060475e+05
   1.482158e+04   8.705213e+05  -4.833698e+05  -3.876717e+04  -1.870275e+05  -2.495633e+04  -2.695564e+04  -2.411790e+05
  -2.973676e+03  -7.210881e+04  -8.195382e+03   9.923686e+02  -2.201844e+04  -1.404594e+04  -8.067150e+03   5.994341e+04
   3.701647e+04   9.575221e+04  -7.386881e+04   2.342779e+03   1.636320e+04  -8.850575e+02   1.479159e+03  -2.923177e+03
   8.924671e+03  -3.133595e+04   3.065965e+04   4.673872e+03  -6.856592e+04  -9.464217e+01  -1.145650e+04  -2.511248e+05
   4.607179e+04   3.864052e+04  -2.075340e+05   2.896390e+04   9.605224e+04  -1.210636e+04   1.215929e+04   4.530629e+05
  -5.471354e+03  -1.186467e+04  -4.059141e+04  -4.617103e+03   3.983272e+02  -1.854949e+02  -4.079705e+03   3.217542e+05
  -6.418207e+03   1.934228e+05  -4.120676e+04  -3.304172e+03  -2.367228e+04  -1.113664e+04  -8.262525e+03  -9.413986e+04
   2.825737e+04  -3.034661e+05   1.116106e+05  -9.440564e+03  -6.853027e+04  -3.065398e+04   8.804885e+02  -8.123464e+04
   3.268752e+04   2.948990e+06   1.651888e+05  -2.574799e+04  -7.313569e+03   4.162603e+03   4.124780e+03  -3.060491e+05
   1.482157e+04   8.705213e+05  -4.833698e+05  -3.876706e+04  -1.870267e+05  -2.495656e+04  -2.695555e+04  -2.411799e+05
  -2.973623e+03  -7.210883e+04  -8.195292e+03   9.926800e+02  -2.201710e+04  -1.404633e+04  -8.066921e+03   5.994405e+04
   3.701646e+04   9.575222e+04  -7.386881e+04   2.342728e+03   1.636338e+04  -8.850635e+02   1.479149e+03  -2.922562e+03
   8.924667e+03  -3.133600e+04   3.065956e+04   4.673856e+03  -6.856538e+04  -9.465535e+01  -1.145652e+04  -2.511252e+05
   4.607178e+04   3.864053e+04  -2.075340e+05   2.896390e+04   9.605236e+04  -1.210635e+04   1.215923e+04   4.530645e+05
  -5.471332e+03  -1.186479e+04  -4.059119e+04  -4.617051e+03   3.994787e+02  -1.855081e+02  -4.079546e+03   3.217582e+05
   9.987972e-01   9.953864e-01   9.995980e-01   9.984367e-01   1.000373e+00   1.003573e+00   9.979893e-01   1.001878e+00
   3.268060e-04  -1.303641e-03   9.087928e-04   8.885624e-04   1.612796e-03  -2.017141e-03  -7.957842e-04  -1.887594e-04
  -1.067873e-04  -2.271119e-03  -1.033190e-04  -9.903343e-05   1.102018e-04   1.050058e-02   3.863665e-04  -3.738098e-03
   3.158980e-04  -3.033124e-04   9.195128e-04   6.828990e-04  -7.134952e-04   2.432745e-03   2.761054e-04   6.999517e-05
   9.996603e-01   1.000847e+00   9.985667e-01   9.990827e-01   1.000582e+00   1.001377e+00   9.983523e-01   9.985772e-01
   3.747519e-05  -8.453825e-04   5.012959e-04  -8.739879e-05   1.563724e-03   8.792025e-04   2.071882e-04  -8.028875e-04
  -1.173180e-04  -3.437792e-03  -5.667065e-04   5.886667e-04   1.484018e-03   1.143910e-02  -4.047569e-04  -2.149523e-03
  -4.767466e-04  -1.591749e-03   4.530918e-05  -4.871226e-04  -9.068029e-04  -3.876089e-03   1.679432e-03  -8.405199e-04
   9.985976e-01   1.002978e+00   9.985664e-01   9.919990e-01   9.955956e-01   9.850992e-01   9.978814e-01   9.772347e-01
   1.000000e+00   9.999997e-01   1.000000e+00   9.999999e-01   9.999991e-01   9.999975e-01   9.999998e-01   9.999997e-01
   5.443686e-06  -5.013942e-04  -5.461358e-06   1.029690e-04   1.163621e-03  -2.206196e-03  -5.369644e-04  -1.296981e-04
   5.232089e-06   5.835646e-04   2.318023e-04  -3.455564e-04  -6.880446e-04  -4.764699e-04   3.967358e-04  -8.027248e-04
  -5.445032e-06   5.011763e-04   5.408457e-06  -1.028996e-04  -1.162768e-03   2.207325e-03   5.372568e-04   1.297135e-04
   1.000000e+00   9.999998e-01   1.000000e+00   1.000000e+00   9.999986e-01   9.999947e-01   9.999996e-01   1.000000e+00
   2.573339e-04   3.735651e-04   2.282160e-04   2.009239e-04   1.238647e-03   2.381159e-03  -7.373499e-04   1.916362e-05
  -5.230688e-06  -5.837518e-04  -2.318035e-04   3.455770e-04   6.894849e-04   4.712141e-04  -3.963397e-04   8.027223e-04
  -2.573339e-04  -3.732725e-04  -2.282148e-04  -2.008883e-04  -1.237846e-03  -2.382205e-03   7.375629e-04  -1.926774e-05
   1.000000e+00   9.999998e-01   9.999999e-01   9.999999e-01   9.999990e-01   9.999971e-01   9.999996e-01   9.999997e-01
   9.987972e-01   9.953880e-01   9.995981e-01   9.984368e-01   1.000374e+00   1.003581e+00   9.979894e-01   1.001876e+00
   9.996604e-01   1.000848e+00   9.985667e-01   9.990828e-01   1.000583e+00   1.001386e+00   9.983536e-01   9.985772e-01
   9.985976e-01   1.002976e+00   9.985665e-01   9.919989e-01   9.955964e-01   9.850934e-01   9.978811e-01   9.772373e-01
   3.213653e-04  -8.011102e-04   9.141830e-04   7.855888e-04   4.487246e-04   1.914025e-04  -2.600780e-04  -5.990505e-05
  -1.120109e-04  -2.857032e-03  -3.347875e-04   2.437877e-04   7.948316e-04   1.096669e-02  -9.022302e-06  -2.953753e-03
  -2.194984e-04  -1.218628e-03   2.734088e-04  -2.866900e-04   3.314562e-04  -1.490677e-03   9.429810e-04  -8.212317e-04
  -1.201995e-03  -4.596953e-03  -4.013752e-04  -1.561672e-03   3.748974e-04   3.647955e-03  -2.008520e-03   1.881820e-03
  -3.394335e-04   8.497122e-04  -1.431809e-03  -9.163967e-04   5.835810e-04   1.387987e-03  -1.644574e-03  -1.421459e-03
  -1.401388e-03   2.985153e-03  -1.432426e-03  -7.968973e-03  -4.393495e-03  -1.473422e-02  -2.116249e-03  -2.249889e-02
   3.211298e-04  -7.978618e-04   9.132983e-04   7.845795e-04   4.490712e-04   1.837040e-04  -2.596067e-04  -5.870576e-05
  -1.119002e-04  -2.854207e-03  -3.343553e-04   2.425092e-04   7.933047e-04   1.090444e-02  -9.126298e-06  -2.922881e-03
  -2.193252e-04  -1.219813e-03   2.728639e-04  -2.853159e-04   3.310014e-04  -1.479550e-03   9.412069e-04  -8.112123e-04
  -9.809389e-04  -2.540292e-04  -1.088537e-03  -3.482347e-03  -1.145006e-03  -3.232759e-03  -1.923115e-03  -7.346178e-03
   8.019441e-04   5.837442e-03   1.353763e-03   4.612625e-03   3.438209e-03   1.718989e-02   1.163007e-03   1.566892e-02
  -1.205122e-03  -4.659952e-03  -4.037645e-04  -1.567936e-03   3.728865e-04   3.368224e-03  -2.016484e-03   1.861893e-03
  -3.400845e-04   8.422966e-04  -1.437616e-03  -9.197649e-04   5.820521e-04   1.373283e-03  -1.653608e-03  -1.426954e-03
  -1.405334e-03   2.952478e-03  -1.436887e-03  -8.098040e-03  -4.433657e-03  -1.541915e-02  -2.125631e-03  -2.358396e-02
   3.220478e-04  -8.154432e-04   9.168371e-04   7.888440e-04   4.486929e-04   2.466187e-04  -2.613101e-04  -6.256357e-05
  -1.124287e-04  -2.860309e-03  -3.365386e-04   2.497352e-04   8.025802e-04   1.117199e-02  -9.453474e-06  -3.028808e-03
  -2.202942e-04  -1.215302e-03   2.748354e-04  -2.920540e-04   3.259962e-04  -1.540369e-03   9.487735e-04  -8.531191e-04
  -9.835136e-04  -2.883925e-04  -1.092756e-03  -3.528581e-03  -1.159573e-03  -3.559213e-03  -1.931908e-03  -7.716340e-03
   8.044928e-04   5.861671e-03   1.359125e-03   4.695380e-03   3.464562e-03   1.765353e-02   1.171671e-03   1.638884e-02
  -1.682783e-02  -9.938404e-02  -7.213876e-03  -2.753315e-02   4.020017e-03   1.909438e-01  -6.775457e-02   4.998318e-02
  -1.189301e-02  -1.216596e-01   1.769466e-02   1.112347e-02   3.384231e-02  -3.137344e-02  -2.209066e-02  -2.176605e-03
  -1.996295e-02  -5.587296e-02  -3.626302e-03   9.198427e-02   2.815187e-02   1.557941e-01  -8.343895e-04  -9.176695e-02
   1.533639e-02   1.824110e-02   1.088134e-01   9.968377e-03  -9.300244e-03   7.406468e-02  -2.970799e-02  -1.010109e-01
   1.916740e-02   1.023705e-01  -2.997545e-02  -2.934823e-02   3.199208e-02   1.086451e-01  -7.737062e-02  -1.625909e-01
   5.122695e-03  -1.567884e-02   4.950776e-02  -1.572247e-01   5.128239e-02   2.178305e-01  -1.756608e-02  -9.103897e-02
  -1.430005e-02  -1.040854e-01  -3.809590e-02   2.629436e-02   7.016983e-02   4.761977e-01   5.404230e-02  -1.659225e-03
  -3.634114e-02  -1.910338e-01  -2.231461e-04  -5.907043e-02  -9.393422e-02  -4.112715e-01   5.668907e-02  -1.158815e-02
  -1.725613e-02   8.358761e-02  -3.097975e-02  -2.743102e-01  -1.815572e-01  -5.255725e-02  -5.440245e-02  -1.328597e-01
  -1.682783e-02  -9.938404e-02  -7.213876e-03  -2.753315e-02   4.020017e-03   1.909438e-01  -6.775457e-02   4.998318e-02
   1.916740e-02   1.023705e-01  -2.997545e-02  -2.934823e-02   3.199208e-02   1.086451e-01  -7.737062e-02  -1.625909e-01
  -1.725613e-02   8.358761e-02  -3.097975e-02  -2.743102e-01  -1.815572e-01  -5.255725e-02  -5.440245e-02  -1.328597e-01
   1.721689e-03  -5.170925e-02   6.325401e-02   1.054593e-02   1.227103e-02   2.134562e-02  -2.589933e-02  -5.159376e-02
  -1.713150e-02  -7.997917e-02  -2.086110e-02   5.913932e-02   4.916085e-02   3.159959e-01   2.660396e-02  -4.671309e-02
  -1.560922e-02  -1.033563e-01   2.464231e-02  -1.081476e-01  -2.132592e-02  -9.672051e-02   1.956150e-02  -5.131356e-02
  -1.361470e-02  -6.995035e-02  -4.555935e-02   5.775488e-04   2.157128e-02  -5.271906e-02   3.808664e-03   4.941715e-02
  -2.831447e-03   2.410621e-02   1.723480e-02   3.284495e-02  -2.100898e-02  -1.602018e-01  -2.743835e-02  -4.505386e-02
   2.073192e-02   8.767750e-02   2.486545e-02  -4.907713e-02   7.260831e-02   3.145510e-01  -3.712757e-02  -3.972541e-02
   4.189658e+00   2.538039e+00   5.312401e+00   1.410802e+00   2.010347e+01   3.182063e+00   1.907754e+00   1.985509e+01
   7.575689e+04   3.098522e+06   5.712012e+05   5.616445e+04   2.344573e+05   4.526103e+04   3.428797e+04   7.367197e+05
   7.575674e+04   3.098521e+06   5.712009e+05   5.616440e+04   2.344564e+05   4.526019e+04   3.428818e+04   7.367163e+05
   7.575672e+04   3.098521e+06   5.712008e+05   5.616430e+04   2.344551e+05   4.526078e+04   3.428796e+04   7.367202e+05
   1.730351e+00   1.731611e+00   1.730164e+00   1.726009e+00   1.730066e+00   1.726442e+00   1.728717e+00   1.719280e+00
   1.730351e+00   1.731611e+00   1.730164e+00   1.726009e+00   1.730066e+00   1.726442e+00   1.728717e+00   1.719280e+00
   5.722690e-02   3.052424e-01   1.340868e-01   3.383046e-01   2.289199e-01   7.246557e-01   1.461183e-01   2.713671e-01
   4.503931e-02   2.585534e-01   1.095322e-01   3.278333e-01   2.001174e-01   5.199551e-01   1.306098e-01   2.480727e-01
   3.530410e-02   1.622437e-01   7.734318e-02   8.351873e-02   1.111635e-01   5.047499e-01   6.551069e-02   1.100001e-01
  -2.158093e+00  -1.127608e+00  -2.653629e+00  -6.442275e-01  -9.796783e+00  -1.313542e+00  -1.026205e+00  -7.012805e+00
   2.410504e+00   1.967562e+00   3.200253e+00   9.293542e-01   1.222769e+01   2.571239e+00   1.071200e+00   1.932271e+01
  -3.699526e+00  -2.349043e+00  -4.705923e+00  -1.216086e+00  -1.771158e+01  -2.947915e+00  -1.710493e+00  -1.946202e+01
  -1.780863e+00  -9.310234e-01  -2.132398e+00  -5.647754e-01  -7.529299e+00  -9.439898e-01  -8.609861e-01  -3.655012e+00
  -9.938892e-01  -1.027579e-01  -1.122566e+00  -1.518208e-01  -4.149470e+00  -4.872158e-02  -5.071368e-01   2.078612e+00
  -1.340893e-01   8.287133e-01  -7.523186e-01   6.497094e-01   7.722602e-01   8.269752e-01  -6.371412e-01  -1.781150e-01
   9.664231e-01   7.391917e-02  -1.438065e-01   7.596286e-01   5.370927e-01   5.621903e-01  -7.134897e-01   3.924099e-01
  -2.191949e-01   5.547704e-01   6.429125e-01  -2.901826e-02   3.393310e-01   7.350871e-03   2.915193e-01   9.023799e-01
  -7.259811e-01   5.199830e-01  -5.701586e-01   7.553204e-01  -5.437414e-02   5.603469e-01  -6.317024e-01  -7.906703e-01
   5.475722e-02   2.649403e-01  -3.467876e-01  -6.493938e-01   5.880398e-01  -8.251942e-01   2.667034e-01   4.888233e-01
   6.855313e-01  -8.120495e-01  -7.447533e-01  -8.819718e-02  -8.070023e-01   7.117501e-02  -7.278883e-01  -3.686356e-01
   6.745158e-01   2.070070e-01  -3.300544e-01   8.584138e-02  -6.329752e-01  -4.607980e-02  -4.415916e-01   5.857606e-01
   2.510538e-01  -9.614274e-01   9.268538e-01  -3.538446e-02   6.047650e-01   5.474093e-02   6.479211e-01   7.791446e-01
   6.942625e-01  -1.811228e-01  -1.789023e-01   9.956803e-01   4.833237e-01   9.974368e-01   6.206409e-01  -2.232001e-01
  -5.068850e+04  -8.229790e+05  -5.400869e+05  -5.228456e+04  -2.119629e+05  -3.965300e+04  -3.512887e+04  -3.016786e+05
  -1.135197e+04  -8.817940e+03  -6.282606e+04   3.363099e+02  -5.815971e+04  -2.496631e+03  -1.287643e+04  -2.075607e+05
   4.717713e+04   9.412468e+05   5.129192e+05   4.501923e+04   2.248297e+05   1.678077e+04   2.759616e+04   7.968009e+05
  -9.521752e-02   6.503665e-01  -6.655430e-01  -5.763232e-01  -6.805148e-01  -6.419288e-01  -7.043222e-01  -4.418058e-01
   7.066070e-01  -7.571516e-01  -7.028292e-01  -6.721038e-01  -7.247203e-01  -7.326167e-01  -7.096516e-01  -8.009427e-01
  -7.011706e-01   6.119538e-02  -2.511646e-01   4.648958e-01   1.080742e-01  -2.262748e-01   1.802434e-02   4.041020e-01
  -9.489701e-01  -4.099993e-02  -3.902870e-01  -5.984776e-01   4.041627e-01  -4.918152e-01   3.423218e-01  -8.207250e-01
   1.483023e-01   4.545408e-02   4.088529e-02  -4.026058e-02  -2.482259e-01   1.670055e-01  -3.172886e-01   1.789752e-01
   2.783203e-01   9.981247e-01   9.197850e-01  -8.001273e-01   8.803615e-01   8.545332e-01   8.843889e-01  -5.425665e-01
   3.006482e-01   7.585133e-01   6.361828e-01  -5.564855e-01   6.111890e-01  -5.882561e-01   6.218891e-01   3.622404e-01
   6.918909e-01   6.516559e-01  -7.101827e-01   7.393616e-01  -6.427786e-01   6.598348e-01  -6.290649e-01  -5.713656e-01
   6.564279e-01   1.481350e-03   3.015160e-01   3.790360e-01  -4.618263e-01  -4.675177e-01  -4.664026e-01  -7.364260e-01
  -3.608962e-02  -1.594371e-01  -9.833940e-02  -3.268833e-01  -1.962302e-01  -2.906661e-01  -1.158671e-01  -2.190272e-01
  -5.255332e-03   4.827624e-02  -1.550526e-02  -1.965688e-02   1.402374e-02   1.251354e-01  -5.002126e-02  -9.451467e-02
   2.642840e-02   1.977349e-01   4.567559e-02   1.534853e-02   3.666132e-02   4.125623e-01  -3.363926e-02   6.807439e-02
   6.430120e-01   8.447615e-01  -5.788928e-01  -1.937369e-01  -2.431045e-01  -5.414541e-01  -6.052640e-01   2.497567e-01
   1.895746e-01   3.324110e-01   6.914218e-01   3.411979e-01   1.031971e-01   2.251464e-01  -6.445619e-01   7.664132e-01
   7.420223e-01   4.193816e-01  -4.322257e-01   9.198098e-01   9.644950e-01   8.100226e-01   4.671140e-01   5.918044e-01
   7.412196e-01   5.315771e-01   2.750242e-01  -9.263093e-01  -9.131808e-01   2.318557e-01  -4.936159e-01  -3.348189e-02
  -3.978162e-01  -6.115577e-01  -3.334501e-01  -3.724343e-01   3.109645e-01   9.661005e-01   7.642743e-01   6.176432e-01
  -5.406809e-01  -5.860230e-01  -9.017609e-01  -5.695364e-02  -2.634426e-01  -1.135460e-01   4.150039e-01  -7.857454e-01
  -1.926891e-01  -6.167555e-02  -7.676229e-01  -3.231363e-01   3.271102e-01  -8.081277e-01  -6.244989e-01   9.677296e-01
  -8.976657e-01  -7.179833e-01  -6.408954e-01   8.630624e-01   9.448023e-01   1.263284e-01   2.061200e-02  -1.764305e-01
   3.963170e-01   6.933225e-01   2.874142e-03  -3.882090e-01  -1.864076e-02  -5.753006e-01  -7.807537e-01  -1.799215e-01
      10      13       4       1      11      14       5       2
      11      14       5       2      12      15       6       3
      13      16       7       4      14      17       8       5
      14      17       8       5      15      18       9       6
      19      22      13      10      20      23      14      11
      20      23      14      11      21      24      15      12
      22      25      16      13      23      26      17      14
      23      26      17      14      24      27      18      15
