     VARIABLES=
              x              y              z      nomin_den    nomin_voidr      fabric_xx      fabric_yy      fabric_zz      fabric_xy      fabric_xz      fabric_yz       sigma_xx       sigma_yy       sigma_zz       sigma_xy       sigma_xz       sigma_yz    sigmaDot_xx    sigmaDot_yy    sigmaDot_zz    sigmaDot_xy    sigmaDot_xz    sigmaDot_yz       Oldro_xx       Oldro_xy       Oldro_xz       Oldro_yx       Oldro_yy       Oldro_yz       Oldro_zx       Oldro_zy       Oldro_zz       Trues_xx       Trues_xy       Trues_xz       Trues_yx       Trues_yy       Trues_yz       Trues_zx       Trues_zy       Trues_zz           F_xX           F_xY           F_xZ           F_yX           F_yY           F_yZ           F_zX           F_zY           F_zZ           R_xX           R_xY           R_xZ           R_yX           R_yY           R_yZ           R_zX           R_zY           R_zZ           U_xX           U_yY           U_zZ           U_xY           U_xZ           U_yZ       Green_xx       Green_yy       Green_zz       Green_xy       Green_xz       Green_yz      Green_vol      Green_shr       Euler_xx       Euler_yy       Euler_zz       Euler_xy       Euler_xz       Euler_yz      Euler_vol      Euler_shr           l_xx           l_xy           l_xz           l_yx           l_yy           l_yz           l_zx           l_zy           l_zz           d_xx           d_yy           d_zz           d_xy           d_xz           d_yz           w_xy           w_xz           w_yz     norm_sigma  norm_sigmaDot     norm_Oldro     norm_Trues         norm_F         norm_U         norm_l         norm_d         norm_w              p              q        sigma_1        sigma_2        sigma_3     sigma_1_v1     sigma_1_v2     sigma_1_v3     sigma_2_v1     sigma_2_v2     sigma_2_v3     sigma_3_v1     sigma_3_v2     sigma_3_v3     sigmaDot_1     sigmaDot_2     sigmaDot_3  sigmaDot_1_v1  sigmaDot_1_v2  sigmaDot_1_v3  sigmaDot_2_v1  sigmaDot_2_v2  sigmaDot_2_v3  sigmaDot_3_v1  sigmaDot_3_v2  sigmaDot_3_v3            d_1            d_2            d_3         d_1_v1         d_1_v2         d_1_v3         d_2_v1         d_2_v2         d_2_v3         d_3_v1         d_3_v2         d_3_v3
ZONE I=2, J=2, K=2, DATAPACKING=POINT, STRANDID=5, SOLUTIONTIME=15
   5.037436e-03   5.037438e-03   4.807829e-03   1.529482e+03   7.326124e-01   2.900560e-01   2.444315e-01   4.030125e-01   3.644792e-02  -1.280683e-03   5.506318e-03  -1.532660e+00  -3.166138e+00  -2.174949e+00   1.012079e-01   1.679935e-01   7.495737e-01   6.291247e+04   1.252366e+04   2.111001e+04  -2.674789e+05  -2.475800e+05  -8.212693e+04   6.291246e+04  -2.940878e+05  -5.687942e+05  -2.408701e+05   1.252369e+04   5.649024e+04   7.363427e+04  -2.207445e+05   2.111017e+04   6.291242e+04  -2.940878e+05  -5.687942e+05  -2.408701e+05   1.252361e+04   5.649025e+04   7.363427e+04  -2.207444e+05   2.111012e+04   1.001985e+00  -6.529011e-03  -8.203287e-02   1.318598e-02   9.949703e-01  -2.915056e-02  -1.825241e-02  -2.170608e-02   9.546587e-01   9.994131e-01  -1.025246e-02  -3.268624e-02   1.013802e-02   9.999419e-01  -3.664953e-03   3.272192e-02   3.331428e-03   9.994589e-01   1.000933e+00   9.949071e-01   9.569304e-01   2.851590e-03  -5.104198e-02  -2.512745e-02   2.240381e-03  -4.760129e-03  -4.052376e-02   3.486937e-03  -5.000245e-02  -2.459512e-02  -1.434784e-02   6.969897e-02   2.650121e-04  -5.934365e-03  -5.520458e-02   1.949411e-03  -5.273948e-02  -2.734106e-02  -2.029131e-02   7.708521e-02  -3.471403e-05  -1.267730e-02   1.126089e-02  -1.451131e-02   1.226996e-03  -1.479269e-02   1.660230e-02  -3.966877e-02   2.444970e-02  -3.471403e-05   1.226996e-03   2.444970e-02  -1.359431e-02   1.393159e-02  -2.723073e-02   9.170048e-04  -2.670704e-03   1.243804e-02   4.333823e+00   7.279660e+05   7.279661e+05   7.279661e+05   1.707019e+00   1.707019e+00   5.626247e-02   5.329267e-02   1.803765e-02  -2.291249e+00   2.500993e+00  -3.932863e+00  -1.723060e+00  -1.217824e+00   1.296673e-01  -8.384182e-01   5.293783e-01   7.299266e-01  -2.806372e-01  -6.232574e-01  -6.711136e-01  -4.672234e-01  -5.755943e-01  -2.664058e+05  -3.306781e+04   3.960198e+05   4.512088e-01   7.599282e-01   4.678887e-01  -6.797162e-01  -4.708723e-02   7.319622e-01   5.782703e-01  -6.482993e-01   4.952893e-01  -1.790046e-02  -6.261881e-03   4.980433e-02   2.949221e-01   8.449138e-01   4.462529e-01  -8.853797e-01   6.600796e-02   4.601584e-01   3.593379e-01  -5.308142e-01   7.675367e-01
   5.037436e-03   5.037438e-03   1.427367e-02   1.549482e+03   7.102493e-01   3.836661e-01   3.459947e-01   2.703392e-01  -9.898701e-02   7.053691e-02   2.711421e-02  -2.612870e+00  -5.587940e-01  -1.097674e+00   5.039043e-03  -7.573734e-01   8.630657e-02  -1.101029e+04  -1.440514e+04  -6.849074e+03   1.373678e+02  -4.099227e+04  -1.946614e+04  -1.101017e+04   2.720281e+04  -5.187669e+04  -2.692829e+04  -1.440509e+04  -1.827955e+03  -3.010725e+04  -3.710467e+04  -6.848620e+03  -1.101073e+04   2.720277e+04  -5.187681e+04  -2.692825e+04  -1.440521e+04  -1.827936e+03  -3.010745e+04  -3.710466e+04  -6.848853e+03   9.540753e-01   1.099492e-01   3.829373e-02   6.798702e-02   1.038312e+00  -1.905296e-01   6.724470e-02   3.837632e-02   1.013134e+00   9.998028e-01   1.718401e-02  -9.956249e-03  -1.817530e-02   9.937702e-01  -1.099567e-01   8.004727e-03   1.101160e-01   9.938865e-01   9.531897e-01   1.037959e+00   1.027509e+00   9.136303e-02   4.985897e-02  -7.712237e-02  -4.029816e-02   4.582720e-02   3.210377e-02   8.903607e-02   4.585472e-02  -7.736925e-02   1.254427e-02   1.555952e-01  -6.768038e-02   2.796603e-02  -3.082767e-03   9.679581e-02   7.286174e-02  -7.799478e-02  -1.426571e-02   1.756599e-01   1.702148e-03   1.661917e-02   6.828735e-02  -3.795084e-02   4.489666e-02  -1.402075e-02   3.768659e-02  -1.933530e-01   1.652543e-01   1.702148e-03   4.489666e-02   1.652543e-01  -1.066584e-02   5.298697e-02  -1.036869e-01   2.728500e-02   1.530038e-02   8.966614e-02   3.106873e+00   8.257444e+04   8.257418e+04   8.257441e+04   1.753644e+00   1.753644e+00   2.733303e-01   2.380594e-01   1.343026e-01  -1.423113e+00   2.499240e+00  -3.088247e+00  -6.411673e-01  -5.399243e-01   8.980022e-01  -8.247538e-02   4.321920e-01   4.211619e-01  -1.231530e-01  -8.985855e-01  -1.273369e-01  -9.889546e-01   7.585620e-02  -7.372252e+04   1.373151e+04   2.772651e+04   5.403027e-01   6.087048e-01   5.809918e-01   8.073034e-01  -5.697255e-01  -1.538636e-01  -2.373483e-01  -5.521696e-01   7.992337e-01  -2.919294e-02   4.832765e-03   2.362132e-01  -6.362341e-01   5.952581e-01   4.907892e-01  -7.410866e-01  -6.483902e-01  -1.743010e-01   2.144688e-01  -4.746135e-01   8.536657e-01
   5.037436e-03   1.496253e-02   4.807829e-03   1.546865e+03   7.131428e-01   2.487508e-01   3.195352e-01   4.004640e-01   1.343980e-02   2.325655e-02   7.811807e-03  -3.971807e+00  -3.159035e+00  -6.074463e+00  -1.162820e+00   3.155169e-01  -1.440325e+00  -1.058857e+04  -2.131346e+04  -5.103336e+03  -5.047017e+04   2.605174e+04  -2.944684e+04  -1.058824e+04  -4.117912e+04   1.997545e+04  -5.976093e+04  -2.131366e+04  -1.320190e+04   3.212837e+04  -4.569187e+04  -5.103548e+03  -1.058817e+04  -4.117910e+04   1.997545e+04  -5.976091e+04  -2.131360e+04  -1.320187e+04   3.212837e+04  -4.569185e+04  -5.103439e+03   1.008618e+00   2.149810e-02  -8.814419e-03   1.202715e-02   1.001029e+00   4.695417e-03   8.853922e-03   5.039569e-03   9.887930e-01   9.999496e-01   4.733517e-03  -8.856118e-03  -4.734387e-03   9.999888e-01  -7.733624e-05   8.855652e-03   1.192606e-04   9.999608e-01   1.008589e+00   1.001120e+00   9.888319e-01   1.680239e-02  -7.979716e-05   4.771566e-03   8.766921e-03   1.272899e-03  -1.109434e-02   1.688376e-02  -3.960741e-05   4.746922e-03  -3.515072e-04   2.332931e-02   8.224242e-03   5.081082e-04  -1.139404e-02   1.649173e-02  -2.771254e-06   4.997585e-03  -8.872287e-04   2.293854e-02   2.320352e-02   6.443600e-02   3.082349e-03  -1.422393e-02  -2.590599e-02   3.737943e-04   1.797676e-02  -4.974020e-03  -1.534288e-02   2.320352e-02  -2.590599e-02  -1.534288e-02   2.510604e-02   1.052955e-02  -2.300113e-03   3.932997e-02  -7.447205e-03   2.673907e-03   8.358729e+00   9.773847e+04   9.773846e+04   9.773839e+04   1.731442e+00   1.731442e+00   7.846523e-02   5.420219e-02   5.673547e-02  -4.401768e+00   3.828207e+00  -6.533445e+00  -4.551257e+00  -2.120603e+00   8.472286e-02   3.617781e-01   9.284065e-01  -8.652027e-01  -4.354367e-01   2.486345e-01   4.942128e-01  -8.243249e-01   2.761200e-01  -7.887770e+04  -3.770167e+04   7.957400e+04  -5.752516e-01  -7.835597e-01  -2.347763e-01  -5.671939e-01   1.752917e-01   8.047136e-01   5.893867e-01  -5.960764e-01   5.452671e-01  -3.823326e-02  -1.512825e-02   3.531616e-02   4.036522e-01  -8.731040e-01  -2.734124e-01  -5.054262e-02  -3.196637e-01   9.461821e-01   9.135154e-01   3.681095e-01   1.731619e-01
   5.037436e-03   1.496253e-02   1.427367e-02   1.482581e+03   7.874234e-01   3.658785e-01   2.909344e-01   2.598537e-01   1.413415e-02   4.129715e-03   2.880522e-02  -3.924733e+00  -3.967782e+00  -3.037604e-01  -1.738474e+00  -2.002374e-01  -6.971644e-01  -4.412924e+04   1.084122e+05  -2.641503e+04  -3.157436e+05  -2.665694e+05   2.840378e+05  -4.412931e+04  -5.025923e+04  -4.643055e+05  -5.812272e+05   1.084122e+05   1.331421e+04  -6.883321e+04   5.547612e+05  -2.641508e+04  -4.412882e+04  -5.025901e+04  -4.643055e+05  -5.812270e+05   1.084127e+05   1.331431e+04  -6.883317e+04   5.547612e+05  -2.641504e+04   9.393465e-01   1.265905e-01  -1.567438e-01   1.217298e-02   9.965425e-01  -5.372001e-02   1.919645e-01  -6.417361e-02   1.085611e+00   9.842979e-01   5.409212e-02  -1.680231e-01  -5.223385e-02   9.985152e-01   1.546294e-02   1.686101e-01  -6.443641e-03   9.856618e-01   9.563280e-01   1.002324e+00   1.095551e+00   6.172920e-02   3.156838e-02  -6.911413e-02  -4.031483e-02   6.620176e-03   1.030027e-01   5.936209e-02   3.025407e-02  -7.152205e-02   2.310267e-02   1.409175e-01  -5.478795e-02  -2.019662e-02   8.494265e-02   8.240514e-02   9.029786e-03  -5.129636e-02   3.319358e-03   1.404724e-01  -3.036070e-02   3.983636e-02   7.540401e-02   8.423346e-02  -3.743617e-02  -9.267454e-03  -8.785788e-03  -7.372421e-03  -5.693998e-02  -3.036070e-02  -3.743617e-02  -5.693998e-02   6.203491e-02   3.330911e-02  -8.319938e-03  -2.219855e-02   4.209490e-02  -9.475162e-04   6.195940e+00   9.396834e+05   9.396831e+05   9.396830e+05   1.771614e+00   1.771614e+00   1.419535e-01   1.249780e-01   6.731499e-02  -2.732092e+00   4.826599e+00  -5.725260e+00  -2.258278e+00  -2.127376e-01  -6.934096e-01  -7.111023e-01  -1.162615e-01  -7.203644e-01   6.877523e-01   8.984393e-02  -1.607090e-02  -1.460493e-01   9.891468e-01  -7.337436e+05  -1.035682e+05   8.751797e+05  -5.328907e-01  -6.902332e-01   4.894953e-01  -6.873571e-01   1.570368e-02  -7.261499e-01   4.935258e-01  -7.234166e-01  -4.828050e-01  -1.119464e-01  -4.516179e-02   3.237137e-02  -6.465734e-01   5.920349e-01   4.810796e-01  -1.759016e-01   4.979333e-01  -8.491884e-01   7.422947e-01   6.336853e-01   2.178105e-01
   1.496252e-02   5.037438e-03   4.807829e-03   1.635667e+03   6.201337e-01   3.527779e-01   3.254204e-01   2.763472e-01   2.808582e-02   3.837976e-02   1.663277e-02  -1.045545e+01  -6.525899e+00  -6.953132e+00  -4.825915e+00  -4.685688e+00  -1.312159e+00   1.832755e+04  -2.882758e+04  -2.537718e+04  -7.071379e+04  -5.415405e+04   2.624816e+04   1.832755e+04  -3.511426e+04  -3.690545e+04  -1.063122e+05  -2.882727e+04   2.322233e+04  -7.140229e+04   2.927465e+04  -2.537661e+04   1.832733e+04  -3.511437e+04  -3.690556e+04  -1.063123e+05  -2.882741e+04   2.322231e+04  -7.140238e+04   2.927462e+04  -2.537675e+04   1.004892e+00  -2.152814e-02  -1.883214e-02   4.505060e-02   1.075091e+00   4.844209e-02   4.988517e-02   2.252610e-02   9.442528e-01   9.989072e-01  -3.106269e-02  -3.492064e-02   3.150670e-02   9.994286e-01   1.223698e-02   3.452057e-02  -1.332384e-02   9.993152e-01   1.006935e+00   1.074845e+00   9.448566e-01   1.314556e-02   1.531083e-02   3.641831e-02   7.162592e-03   7.839562e-02  -5.284264e-02   1.396188e-02   1.518115e-02   3.687770e-02   1.090519e-02   9.019787e-02   4.552847e-03   6.673355e-02  -6.230815e-02   8.001159e-03   1.699979e-02   3.468524e-02   2.992750e-03   8.733722e-02  -1.275420e-02   5.459324e-02  -2.810948e-02   2.010645e-02   6.971296e-03   9.044166e-03   1.939448e-02   6.102380e-03   2.710961e-02  -1.275420e-02   6.971296e-03   2.710961e-02   3.734984e-02  -4.357502e-03   7.573273e-03   1.724340e-02  -2.375198e-02   1.470893e-03   1.717155e+01   1.490066e+05   1.490059e+05   1.490061e+05   1.750837e+00   1.750837e+00   7.494141e-02   6.236109e-02   4.156091e-02  -7.978161e+00   1.167334e+01  -1.564413e+01  -5.305749e+00  -2.984600e+00   7.672058e-01   4.592410e-01   4.477643e-01   9.139726e-02   6.127041e-01  -7.850097e-01  -6.348557e-01   6.431885e-01   4.280968e-01  -1.208669e+05  -5.265211e+04   1.376418e+05   6.706712e-01   6.816373e-01   2.925247e-01  -1.263324e-01   4.935746e-01  -8.604791e-01   7.309174e-01  -5.401432e-01  -4.171392e-01  -4.246038e-02   2.681291e-02   3.697418e-02  -7.839239e-01   6.100177e-01  -1.155064e-01   2.997396e-01   2.089325e-01  -9.308616e-01  -5.437090e-01  -7.643465e-01  -3.466336e-01
   1.496252e-02   5.037438e-03   1.427367e-02   1.325449e+03   9.993227e-01   3.043463e-01   4.047585e-01   2.320717e-01   3.431793e-02  -6.225411e-02   4.231940e-02  -2.181105e+00  -1.509439e+00  -6.248439e-02  -1.072161e+00   4.449480e-02  -7.683600e-03  -1.094737e+04  -1.097155e+04   2.560944e+02  -3.017180e+04  -7.928810e+02  -2.154472e+03  -1.094742e+04  -3.106413e+04  -1.143534e+03  -2.927954e+04  -1.097130e+04  -2.126870e+02  -4.427510e+02  -4.096958e+03   2.560869e+02  -1.094762e+04  -3.106423e+04  -1.143529e+03  -2.927964e+04  -1.097144e+04  -2.126883e+02  -4.427485e+02  -4.096958e+03   2.560810e+02   1.142069e+00  -2.262290e-01   1.117404e-01  -1.075457e-01   9.939103e-01   1.618921e-02  -3.352525e-02   6.755779e-02   7.566850e-01   9.955142e-01  -5.632836e-02   7.601695e-02   5.808858e-02   9.980875e-01  -2.114497e-02  -7.468050e-02   2.546584e-02   9.968823e-01   1.133202e+00   1.006473e+00   7.624777e-01  -1.725246e-01   5.566990e-02   2.913372e-02   1.585054e-01   2.180066e-02  -2.073399e-01  -1.837624e-01   5.025301e-02   2.096584e-02  -9.011283e-03   3.074764e-01   9.745188e-02  -5.682101e-02  -3.794861e-01  -1.427639e-01   4.205869e-02   8.757334e-02  -1.129518e-01   3.445771e-01   3.645632e-02  -9.976826e-02  -1.119256e-01  -7.099969e-03   8.988638e-02   6.948252e-02  -7.422855e-04  -2.351736e-01  -3.178221e-02   3.645632e-02   8.988638e-02  -3.178221e-02  -5.343411e-02  -5.633397e-02  -8.284555e-02  -4.633415e-02  -5.559168e-02   1.523281e-01   3.057177e+00   4.561670e+04   4.561674e+04   4.561695e+04   1.716372e+00   1.716372e+00   3.050987e-01   1.902707e-01   2.385000e-01  -1.251010e+00   2.593207e+00  -2.932351e+00  -7.587545e-01  -6.192340e-02   8.090157e-01   5.877438e-01  -7.132222e-03   5.874429e-01  -8.088976e-01  -2.440311e-02   2.011202e-02  -1.555273e-02   9.996768e-01  -4.049257e+04   1.441542e+02   1.868559e+04   7.023143e-01   7.074973e-01   7.875378e-02   1.546766e-01  -4.367740e-02  -9.869992e-01  -6.948595e-01   7.053651e-01  -1.401085e-01  -1.116261e-01   6.783622e-02   1.383503e-01   4.534966e-01   4.391074e-01   7.755808e-01   8.461341e-01   6.126582e-02  -5.294371e-01   2.799963e-01  -8.963432e-01   3.437599e-01
   1.496252e-02   1.496253e-02   4.807829e-03   1.501398e+03   7.650222e-01   2.540042e-01   4.025155e-01   2.434803e-01   2.503086e-03  -4.069686e-02   4.921014e-02  -3.403113e-01  -1.215330e-01  -4.116946e-01   1.822129e-02  -2.760620e-02  -9.634198e-02   1.094261e+03  -1.716632e+03   2.493263e+02  -2.181179e+03  -8.409290e+03  -6.511422e+03   1.094292e+03  -2.149678e+03  -7.286788e+03  -2.212699e+03  -1.716633e+03  -8.004227e+03  -9.531798e+03  -5.018649e+03   2.492878e+02   1.094287e+03  -2.149678e+03  -7.286789e+03  -2.212698e+03  -1.716635e+03  -8.004228e+03  -9.531798e+03  -5.018651e+03   2.492823e+02   1.079761e+00   5.591452e-02  -1.041659e-01   5.503477e-02   7.763381e-01  -5.758854e-02  -2.929283e-01  -8.893322e-02   8.729063e-01   9.953899e-01   1.866450e-03   9.589278e-02  -3.344338e-03   9.998781e-01   1.525347e-02  -9.585262e-02  -1.550385e-02   9.952748e-01   1.102677e+00   7.777267e-01   8.579145e-01   6.158489e-02  -1.871635e-01  -7.130934e-02   1.273594e-01  -1.931318e-01  -1.119338e-01   6.457547e-02  -1.856713e-01  -6.408147e-02  -5.923538e-02   3.066198e-01  -1.121186e-02  -3.537171e-01  -2.185580e-01   3.792439e-02  -2.402545e-01  -1.168533e-01  -1.944957e-01   3.698232e-01   4.941333e-02   2.517059e-02  -3.823806e-02  -2.220255e-02   1.146820e-03  -1.381042e-02   2.619772e-02  -4.858135e-02  -3.718102e-02   4.941333e-02   1.146820e-03  -3.718102e-02   1.484020e-03  -6.020166e-03  -3.119588e-02   2.368657e-02  -3.221789e-02   1.738546e-02   5.681085e-01   1.571400e+04   1.571402e+04   1.571402e+04   1.626219e+00   1.626219e+00   9.824091e-02   7.647664e-02   6.166523e-02  -2.911796e-01   3.478882e-01  -4.633340e-01  -3.396915e-01  -7.051335e-02  -1.743392e-01  -3.345096e-01  -9.261259e-01  -9.787480e-01   1.619996e-01   1.257320e-01   1.079735e-01   9.283639e-01  -3.556435e-01  -1.160275e+04   6.952548e+02   1.053445e+04  -5.812706e-01  -4.680119e-01  -6.656496e-01   4.463871e-01  -8.673658e-01   2.200344e-01  -6.803404e-01  -1.692378e-01   7.130887e-01  -5.482641e-02   1.802883e-02   5.017671e-02   4.351591e-02   4.854891e-01   8.731591e-01  -1.325174e-01   8.690692e-01  -4.766108e-01   9.902250e-01   9.496859e-02  -1.021541e-01
   1.496252e-02   1.496253e-02   1.427367e-02   1.284964e+03   1.062314e+00   2.278599e-01   4.098417e-01   2.084522e-01  -1.073238e-02  -5.302907e-02  -3.938911e-02  -4.306354e-01  -1.097697e+00  -5.564988e-01   7.008409e-02  -9.967513e-02   2.746185e-01   9.106559e+02   9.904724e+03  -3.024380e+03   2.773984e+04  -1.441325e+04  -8.776369e+03   9.106137e+02   1.848235e+04  -1.799398e+04   3.699729e+04   9.905136e+03   4.144125e+03  -1.083247e+04  -2.169740e+04  -3.024397e+03   9.106141e+02   1.848235e+04  -1.799398e+04   3.699729e+04   9.905137e+03   4.144124e+03  -1.083247e+04  -2.169740e+04  -3.024396e+03   9.913755e-01   1.200258e-01  -1.315679e-01   1.025730e-01   1.115785e+00  -6.933037e-02   3.768780e-01   3.553655e-03   1.084249e+00   9.715529e-01   8.166685e-04  -2.368212e-01  -5.671697e-03   9.997875e-01  -1.982027e-02   2.367547e-01   2.059962e-02   9.713511e-01   1.051820e+00   1.115719e+00   1.085719e+00   1.111244e-01   1.292691e-01  -4.708796e-02   6.769185e-02   1.296976e-01   9.885681e-02   1.173897e-01   1.355426e-01  -4.464815e-02   9.874875e-02   2.163539e-01  -4.106568e-02   8.162311e-02   1.026595e-01   1.075898e-01   9.767829e-02  -2.922949e-02   4.773898e-02   1.932057e-01  -5.375807e-02   1.420378e-01   1.203979e-01  -2.545767e-01   1.095200e-01  -2.484852e-01   1.145802e-04  -8.352664e-02  -5.672774e-02  -5.375807e-02   1.095200e-01  -5.672774e-02  -5.626946e-02   6.025622e-02  -1.660059e-01   1.983072e-01   6.014164e-02  -8.247928e-02   1.384641e+00   5.241705e+04   5.241719e+04   5.241719e+04   1.895387e+00   1.895387e+00   4.316293e-01   2.946399e-01   3.154223e-01  -6.949439e-01   7.079421e-01  -1.144053e+00  -5.960335e-01  -3.447451e-01   1.201754e-01  -9.573266e-01   2.628378e-01  -5.439316e-01  -2.849748e-01  -7.892577e-01   8.304796e-01  -4.811639e-02  -5.549671e-01  -3.355146e+04  -1.127874e+04   5.262120e+04  -6.677610e-01   6.978485e-01   2.590417e-01  -4.559767e-01  -1.084123e-01  -8.833641e-01   5.883710e-01   7.079931e-01  -3.905961e-01  -1.642819e-01  -7.080186e-02   2.341180e-01  -2.253081e-01   4.708456e-01   8.529599e-01  -9.368978e-01  -3.449114e-01  -5.708432e-02   2.673177e-01  -8.119979e-01   5.188456e-01
