     VARIABLES=
              x              y              z      nomin_den    nomin_voidr      fabric_xx      fabric_yy      fabric_zz      fabric_xy      fabric_xz      fabric_yz       sigma_xx       sigma_yy       sigma_zz       sigma_xy       sigma_xz       sigma_yz    sigmaDot_xx    sigmaDot_yy    sigmaDot_zz    sigmaDot_xy    sigmaDot_xz    sigmaDot_yz       Oldro_xx       Oldro_xy       Oldro_xz       Oldro_yx       Oldro_yy       Oldro_yz       Oldro_zx       Oldro_zy       Oldro_zz       Trues_xx       Trues_xy       Trues_xz       Trues_yx       Trues_yy       Trues_yz       Trues_zx       Trues_zy       Trues_zz           F_xX           F_xY           F_xZ           F_yX           F_yY           F_yZ           F_zX           F_zY           F_zZ           R_xX           R_xY           R_xZ           R_yX           R_yY           R_yZ           R_zX           R_zY           R_zZ           U_xX           U_yY           U_zZ           U_xY           U_xZ           U_yZ       Green_xx       Green_yy       Green_zz       Green_xy       Green_xz       Green_yz      Green_vol      Green_shr       Euler_xx       Euler_yy       Euler_zz       Euler_xy       Euler_xz       Euler_yz      Euler_vol      Euler_shr           l_xx           l_xy           l_xz           l_yx           l_yy           l_yz           l_zx           l_zy           l_zz           d_xx           d_yy           d_zz           d_xy           d_xz           d_yz           w_xy           w_xz           w_yz     norm_sigma  norm_sigmaDot     norm_Oldro     norm_Trues         norm_F         norm_U         norm_l         norm_d         norm_w              p              q        sigma_1        sigma_2        sigma_3     sigma_1_v1     sigma_1_v2     sigma_1_v3     sigma_2_v1     sigma_2_v2     sigma_2_v3     sigma_3_v1     sigma_3_v2     sigma_3_v3     sigmaDot_1     sigmaDot_2     sigmaDot_3  sigmaDot_1_v1  sigmaDot_1_v2  sigmaDot_1_v3  sigmaDot_2_v1  sigmaDot_2_v2  sigmaDot_2_v3  sigmaDot_3_v1  sigmaDot_3_v2  sigmaDot_3_v3            d_1            d_2            d_3         d_1_v1         d_1_v2         d_1_v3         d_2_v1         d_2_v2         d_2_v3         d_3_v1         d_3_v2         d_3_v3
ZONE I=2, J=2, K=2, DATAPACKING=POINT, STRANDID=5, SOLUTIONTIME=40
   5.099506e-03   5.098426e-03   4.868096e-03   1.583341e+03   6.736766e-01   3.297530e-01   3.493613e-01   3.208857e-01  -9.807472e-03  -5.621205e-02   3.128103e-03  -4.140333e+02  -2.761428e+02  -2.791413e+02   5.212770e+01   8.662217e+01  -2.895961e+00   6.537103e+05  -8.180054e+04   6.509479e+05   5.454043e+05   4.986179e+06  -1.314565e+06   6.537014e+05  -1.765556e+06   1.030087e+07   2.856318e+06  -8.180670e+04   2.365922e+05  -3.284820e+05  -2.865715e+06   6.509579e+05   6.537025e+05  -1.765556e+06   1.030087e+07   2.856318e+06  -8.180600e+04   2.365923e+05  -3.284823e+05  -2.865715e+06   6.509586e+05   1.030955e+00   5.768983e-04  -4.375560e-03   2.146384e-02   9.873080e-01   4.377622e-03  -4.679995e-04  -6.975682e-03   1.020947e+00   9.999445e-01  -1.035078e-02  -1.970657e-03   1.036179e-02   9.999303e-01   5.665999e-03   1.911872e-03  -5.686104e-03   9.999820e-01   1.031120e+00   9.872729e-01   1.020962e+00   1.079381e-02  -2.378036e-03  -1.382606e-03   3.166505e-02  -1.258691e-02   2.118597e-02   1.089472e-02  -2.447425e-03  -1.401134e-03   1.342137e-02   2.969677e-02   2.934013e-02  -1.294258e-02   2.031647e-02   1.093925e-02  -2.211244e-03  -1.142736e-03   1.223800e-02   2.879272e-02  -1.058791e-02  -6.910793e-03   4.535198e-03  -5.324704e-02  -2.132123e-02   1.050830e-02   3.714603e-02  -8.058741e-03   2.938223e-02  -1.058791e-02  -2.132123e-02   2.938223e-02  -3.007892e-02   2.084062e-02   1.224777e-03   2.316812e-02  -1.630542e-02   9.283518e-03   5.883721e+02   1.125244e+07   1.125245e+07   1.125245e+07   1.755143e+00   1.755143e+00   7.673841e-02   6.411832e-02   4.216189e-02  -3.231058e+02   2.295649e+02  -4.728494e+02  -2.756078e+02  -2.208603e+02  -8.755506e-01   2.258471e-01   4.270881e-01  -4.288630e-03   8.803409e-01  -4.743222e-01  -4.831074e-01  -4.171247e-01  -7.698144e-01  -3.631339e+06   3.238380e+05   4.530359e+06   4.652613e-01  -7.517299e-01  -4.673693e-01  -7.082223e-01   5.977352e-04  -7.059893e-01   5.309926e-01   6.594709e-01  -5.321137e-01  -4.924192e-02   6.105749e-03   4.060926e-02  -6.641728e-01  -7.237295e-01   1.873238e-01  -5.788632e-01   6.564360e-01   4.837448e-01   4.730665e-01  -2.128553e-01   8.549273e-01
   5.099506e-03   5.098426e-03   1.421042e-02   1.555880e+03   7.032166e-01   3.065965e-01   4.036927e-01   2.897108e-01  -5.496558e-02  -2.743560e-02   3.737504e-02  -2.389445e+02  -2.237728e+02  -2.536632e+02   7.777644e+01   6.417076e+01  -2.186444e+01  -7.776754e+04   8.024443e+03  -6.339134e+04   9.844823e+04  -1.969834e+04   5.172728e+04  -7.778108e+04   4.940780e+04  -2.727286e+04   1.474892e+05   8.016709e+03   9.502366e+04  -1.214191e+04   8.422275e+03  -6.336748e+04  -7.777806e+04   4.940679e+04  -2.727367e+04   1.474883e+05   8.019539e+03   9.502395e+04  -1.214272e+04   8.422529e+03  -6.336427e+04   6.223670e-01  -7.679869e-01  -1.074966e+00  -9.853550e-02   4.011174e-01  -5.530959e-01   3.507400e-01   9.117806e-01   2.181627e+00   8.601590e-01  -3.492932e-01  -3.716461e-01   1.203849e-01   8.471364e-01  -5.175590e-01   4.956148e-01   4.004425e-01   7.707216e-01   6.973043e-01   9.731694e-01   2.367193e+00  -1.604104e-01   9.002053e-02   7.805464e-01  -2.399658e-01   2.910214e-01   2.610480e+00  -9.884808e-02   7.532997e-02   1.296434e+00   8.871787e-01   2.307668e+00  -3.230014e-01  -1.264093e+00   9.379433e-02  -4.999632e-01  -4.838117e-01  -5.176680e-01  -4.977667e-01   1.283687e+00  -2.675898e-02  -1.886024e-02   2.868075e-02  -4.878341e-03  -1.639916e-02  -2.638798e-02  -7.102966e-02  -1.683707e-02   3.051055e-02  -2.675898e-02  -1.639916e-02   3.051055e-02  -1.186929e-02  -2.117445e-02  -2.161252e-02  -6.990949e-03   4.985521e-02  -4.775454e-03   4.391106e+02   2.105151e+05   2.105124e+05   2.105098e+05   2.884974e+00   2.884974e+00   9.561896e-02   6.347083e-02   7.151531e-02  -2.387935e+02   1.771779e+02  -3.484434e+02  -2.220037e+02  -1.459334e+02  -6.675943e-01   4.955014e-01   5.556943e-01  -1.903417e-01   6.079825e-01  -7.707965e-01  -7.197832e-01  -6.203512e-01  -3.115711e-01  -1.901905e+05  -6.167437e+04   1.187304e+05   7.945286e-01  -5.961138e-01   1.156399e-01  -9.068710e-02   7.181534e-02   9.932867e-01   6.004166e-01   7.996818e-01  -2.999511e-03  -4.609962e-02  -9.195523e-03   4.264755e-02   7.430455e-01   5.617013e-01   3.638337e-01   6.274109e-01  -7.738542e-01  -8.663302e-02  -2.328924e-01  -2.926455e-01   9.274264e-01
   5.099506e-03   1.489952e-02   4.868096e-03   1.559840e+03   6.988923e-01   3.216531e-01   3.652245e-01   3.131224e-01   6.606569e-03  -2.617180e-02   5.811752e-03  -3.612594e+02  -5.239978e+02  -3.203543e+02   4.430799e+01   9.898865e+01  -4.935079e+01  -1.094913e+05  -2.585162e+05  -5.743632e+05  -2.013041e+05  -4.992527e+04   2.464913e+06  -1.094914e+05  -6.757852e+04   1.666722e+05  -3.350482e+05  -2.585257e+05  -5.185715e+04  -2.664947e+05   4.981659e+06  -5.743710e+05  -1.094883e+05  -6.757889e+04   1.666713e+05  -3.350486e+05  -2.585213e+05  -5.185673e+04  -2.664955e+05   4.981659e+06  -5.743683e+05   1.017092e+00   2.716375e-02  -5.888552e-03   4.505615e-02   1.001622e+00   4.169016e-02   4.254202e-02  -2.487760e-02   1.035890e+00   9.996733e-01  -8.057765e-03  -2.425502e-02   8.853776e-03   9.994197e-01   3.289197e-02   2.397591e-02  -3.309597e-02   9.991646e-01   1.018179e+00   1.001645e+00   1.036539e+00   3.542654e-02   1.931888e-02   7.429633e-03   1.915804e-02   2.301256e-03   3.742031e-02   3.584945e-02   1.997903e-02   7.913677e-03   1.962653e-02   5.235102e-02   1.401852e-02   8.022607e-04   3.440743e-02   3.481006e-02   1.583688e-02   8.187932e-03   1.640940e-02   4.920980e-02   3.737874e-03  -1.005313e-02   1.828646e-02  -7.771859e-03  -1.208468e-02   2.492822e-02   2.036082e-02  -3.733504e-02  -2.131917e-04   3.737874e-03  -1.208468e-02  -2.131917e-04  -8.912494e-03   1.932364e-02  -6.203408e-03  -1.140635e-03  -1.037181e-03   3.113163e-02   7.321937e+02   5.044211e+06   5.044201e+06   5.044201e+06   1.765718e+00   1.765718e+00   5.555000e-02   3.380374e-02   4.408072e-02  -4.018705e+02   2.788686e+02  -5.615768e+02  -4.044370e+02  -2.395978e+02  -3.599876e-01   8.731704e-01   3.286067e-01  -6.963716e-01  -4.858772e-01   5.281951e-01   6.208668e-01  -3.868872e-02   7.829608e-01  -5.400943e+06  -1.476591e+05   4.606232e+06  -7.909975e-03  -6.960353e-01   7.179640e-01  -9.959114e-01  -5.912894e-02  -6.829516e-02  -8.998829e-02   7.155688e-01   6.927218e-01  -1.824451e-02  -1.468894e-02   2.437345e-02   6.921181e-01   3.893266e-01  -6.077807e-01   7.511596e-02  -8.763326e-01  -4.758139e-01   7.178650e-01  -2.836653e-01   6.357702e-01
   5.099506e-03   1.489952e-02   1.421042e-02   1.632824e+03   6.229554e-01   2.381236e-01   3.625184e-01   3.993579e-01   3.535357e-02   9.540619e-03   2.699497e-02  -1.975264e+02  -3.124370e+02  -3.893630e+02  -4.543568e+01  -3.965851e+01  -7.832824e+01  -2.761949e+05  -1.188559e+04  -1.685413e+05  -6.675600e+05  -1.101257e+06   5.566286e+05  -2.761900e+05  -1.998023e+05  -1.664911e+06  -1.135318e+06  -1.188763e+04  -2.553845e+05  -5.375827e+05   1.368631e+06  -1.685747e+05  -2.761827e+05  -1.998007e+05  -1.664909e+06  -1.135316e+06  -1.187613e+04  -2.553814e+05  -5.375813e+05   1.368633e+06  -1.685603e+05   9.516716e-01   6.056165e-02  -9.374104e-02   1.450447e-02   9.138617e-01   1.586290e-01   2.000004e-01   1.677880e-02   1.222266e+00   9.901593e-01   3.737056e-02  -1.348632e-01  -2.795851e-02   9.970829e-01   7.102143e-02   1.371239e-01  -6.655195e-02   9.883157e-01   9.693257e-01   9.123424e-01   1.231893e+00   3.671624e-02   7.034823e-02   7.331898e-02  -2.705536e-02  -8.045382e-02   2.639420e-01   3.712282e-02   7.877191e-02   7.989802e-02   5.214429e-02   2.538330e-01  -4.824668e-02  -1.030610e-01   1.615980e-01   2.880019e-02   2.345315e-02   8.193827e-02   3.430107e-03   1.918588e-01   1.279458e-02  -2.245963e-02   2.440159e-02   2.251081e-02  -1.057521e-02   1.608026e-02   2.498606e-02  -3.156283e-02  -3.903936e-02   1.279458e-02  -1.057521e-02  -3.903936e-02   2.559008e-05   2.469382e-02  -7.741288e-03  -2.248522e-02  -2.922377e-04   2.382155e-02   5.548254e+02   2.536346e+06   2.536336e+06   2.536333e+06   1.820128e+00   1.820128e+00   7.270012e-02   5.602708e-02   4.632788e-02  -2.997755e+02   2.373433e+02  -4.486887e+02  -2.716431e+02  -1.789947e+02   2.312599e-01   5.280936e-01   8.170899e-01   2.105757e-01   7.927781e-01  -5.719797e-01  -9.498298e-01   3.043353e-01   7.213411e-02  -1.634875e+06  -7.599670e+05   1.938220e+06  -4.025905e-01  -7.381397e-01   5.413601e-01  -7.785052e-01  -3.499469e-02  -6.266618e-01   4.815087e-01  -6.737397e-01  -5.605570e-01  -5.022988e-02  -9.513572e-03   2.292346e-02   3.589778e-01  -1.790530e-01  -9.160104e-01  -1.471093e-01  -9.800134e-01   1.339126e-01   9.216799e-01  -8.668197e-02   3.781434e-01
   1.489988e-02   5.098426e-03   4.868096e-03   1.640240e+03   6.156176e-01   4.212653e-01   3.392367e-01   2.394980e-01  -1.999103e-02  -1.823333e-02  -3.399797e-02  -1.034602e+03  -6.799811e+02  -3.922567e+02   7.266589e+01  -3.648256e+01   1.172714e+02  -4.685766e+05  -3.912294e+05  -8.604456e+05  -1.853371e+05   8.474555e+04   2.652054e+06  -4.686043e+05  -3.294466e+05   8.222946e+05  -4.124746e+04  -3.912509e+05  -1.823443e+05  -6.528861e+05   5.486437e+06  -8.604667e+05  -4.685419e+05  -3.294508e+05   8.222968e+05  -4.125193e+04  -3.912099e+05  -1.823518e+05  -6.528838e+05   5.486430e+06  -8.604430e+05   1.102607e+00  -1.781288e-02   1.894827e-02   3.169452e-02   1.051005e+00   3.739736e-02   1.527062e-01  -3.245983e-04   9.912378e-01   9.977402e-01  -2.111600e-02  -6.378565e-02   2.224495e-02   9.996073e-01   1.704104e-02   6.340076e-02  -1.842144e-02   9.978181e-01   1.110502e+00   1.050975e+00   9.885037e-01   5.586355e-03   8.258258e-02   1.872254e-02   1.200332e-01   5.246475e-02  -7.845052e-03   6.810466e-03   8.672296e-02   1.932277e-02   5.488431e-02   1.266661e-01   7.681523e-02   4.760373e-02  -1.245139e-02   3.522068e-03   7.859662e-02   1.804030e-02   3.732252e-02   1.069997e-01  -1.419101e-02  -3.934462e-02  -5.589691e-02   8.494417e-03  -1.930357e-02  -2.565685e-02  -2.219067e-02  -6.713888e-03  -2.681280e-02  -1.419101e-02  -1.930357e-02  -2.681280e-02  -1.542510e-02  -3.904379e-02  -1.618537e-02  -2.391952e-02  -1.685312e-02  -9.471479e-03   1.314323e+03   5.697366e+06   5.697365e+06   5.697348e+06   1.824639e+00   1.824639e+00   8.504901e-02   7.308607e-02   4.349437e-02  -7.022800e+02   6.069851e+02  -1.054868e+03  -6.979509e+02  -3.540216e+02   9.713442e-01  -2.192717e-01   9.170786e-02   2.370467e-01   9.218328e-01  -3.066481e-01   1.730005e-02  -3.195999e-01  -9.473946e-01  -6.151932e+06  -4.771857e+05   4.908866e+06   7.797299e-02  -6.872667e-01   7.222082e-01  -9.929331e-01  -1.185430e-01  -5.605991e-03  -8.946553e-02   7.166673e-01   6.916530e-01  -6.990417e-02  -9.500757e-03   1.909755e-02  -5.973778e-01  -4.037440e-01  -6.929145e-01   2.311024e-01  -9.140403e-01   3.333497e-01  -7.679398e-01   3.900151e-02   6.393336e-01
   1.489988e-02   5.098426e-03   1.421042e-02   1.380729e+03   9.192754e-01   2.422676e-01   3.662557e-01   3.289767e-01  -1.810940e-04   1.120091e-02  -1.204621e-03  -3.652917e+01  -6.143915e+01  -4.985998e+01  -6.032940e+00  -1.062775e+01   9.724170e-01  -1.016474e+05  -4.675643e+04  -6.828483e+04   4.735380e+04  -6.262838e+04  -2.771012e+05  -1.016509e+05   4.522550e+04  -1.202774e+05   4.943804e+04  -4.676262e+04   3.878184e+04  -4.954241e+03  -5.929849e+05  -6.829111e+04  -1.016441e+05   4.522651e+04  -1.202759e+05   4.943927e+04  -4.675122e+04   3.878141e+04  -4.951803e+03  -5.929848e+05  -6.828186e+04   1.163448e+00   1.434853e-04  -4.989562e-02  -1.016504e-01   8.444696e-01  -6.918521e-02  -2.054101e-01   1.458322e-01   9.240552e-01   9.959494e-01   6.082278e-02   6.622290e-02  -5.225526e-02   9.908809e-01  -1.241948e-01  -7.317288e-02   1.202313e-01   9.900455e-01   1.179077e+00   8.543112e-01   9.201449e-01  -5.465604e-02  -1.136940e-01   3.951123e-02   2.030685e-01  -1.328020e-01  -6.942291e-02  -5.781458e-02  -1.204143e-01   3.816250e-02   2.811914e-04   2.611379e-01   1.020162e-01  -1.994062e-01  -8.613186e-02  -4.955118e-02  -1.193496e-01   4.567219e-02  -6.117397e-02   2.365492e-01  -6.525187e-02  -3.119142e-01   2.341133e-01  -3.494289e-02  -4.794027e-02  -6.400470e-02   4.839114e-02   4.563635e-02  -7.237685e-02  -6.525187e-02  -4.794027e-02  -7.237685e-02  -1.734285e-01   1.412522e-01  -9.184173e-03  -1.384856e-01   9.286110e-02  -5.482053e-02   8.895479e+01   6.239420e+05   6.239384e+05   6.239352e+05   1.732538e+00   1.732538e+00   4.166965e-01   3.346976e-01   2.482207e-01  -4.927610e+01   3.341772e+01  -6.449248e+01  -5.576026e+01  -2.757556e+01  -3.715563e-01  -8.565927e-01  -3.580431e-01  -3.699325e-01   4.903117e-01  -7.891416e-01   8.515256e-01  -1.607588e-01  -4.990599e-01  -6.523642e+05  -1.022388e+05   5.379144e+05   5.653283e-02  -7.008552e-01  -7.110598e-01  -9.965609e-01   3.605609e-03  -8.278546e-02  -6.058443e-02  -7.132944e-01   6.982411e-01  -2.810331e-01  -7.161246e-02   1.670765e-01   7.192855e-01   5.168824e-01  -4.641777e-01  -4.527071e-02  -6.318622e-01  -7.737576e-01   6.932380e-01  -5.775663e-01   4.310897e-01
   1.489988e-02   1.489952e-02   4.868096e-03   1.566033e+03   6.921741e-01   3.429272e-01   3.693526e-01   2.668868e-01   1.635775e-02   1.635890e-02   3.931038e-02  -1.202237e+02  -1.190539e+02  -4.867188e+01   8.594795e+01   2.464894e+00  -1.743908e+01  -8.181608e+04  -9.634897e+04  -6.039512e+04  -3.137982e+04  -4.063308e+04  -3.721137e+04  -8.182764e+04  -4.951069e+04  -4.874415e+04  -1.323737e+04  -9.635498e+04  -3.956132e+04  -3.253412e+04  -3.485256e+04  -6.039124e+04  -8.182258e+04  -4.951427e+04  -4.874424e+04  -1.324101e+04  -9.634998e+04  -3.956060e+04  -3.253423e+04  -3.485181e+04  -6.038919e+04   1.107297e+00   1.533774e-02  -1.379856e-01   2.297208e-02   8.280151e-01   1.466203e-01  -1.352717e-01  -1.584389e-01   1.014324e+00   9.998761e-01  -1.520722e-02  -4.060253e-03   1.566796e-02   9.862583e-01   1.644661e-01   1.503385e-03  -1.645094e-01   9.863744e-01   1.107317e+00   8.424682e-01   1.025177e+00   2.807095e-02  -1.341463e-01  -2.016191e-02   1.224666e-01  -1.445264e-01   3.469506e-02   2.871848e-02  -1.433161e-01  -2.071046e-02   4.211759e-03   2.318374e-01   7.084968e-02  -2.071823e-01   1.602814e-03   1.324593e-02  -1.171172e-01   1.312186e-02  -4.490994e-02   2.160620e-01  -3.858512e-02   1.306188e-02   6.311872e-03  -2.625935e-02  -4.667250e-02   1.682734e-02  -6.836220e-02  -1.907477e-02   4.323115e-02  -3.858512e-02  -4.667250e-02   4.323115e-02  -6.598733e-03  -3.102516e-02  -1.123717e-03   1.966062e-02   3.733703e-02   1.795106e-02   2.153878e+02   1.687180e+05   1.687245e+05   1.687195e+05   1.739330e+00   1.739330e+00   1.084273e-01   8.689534e-02   6.485113e-02  -9.598316e+01   1.687274e+02  -2.074887e+02  -5.305706e+01  -2.740370e+01  -7.027118e-01   7.057560e-01   9.002527e-02  -3.895719e-01  -2.758019e-01  -8.787303e-01  -5.953401e-01  -6.525655e-01   4.687520e-01  -1.342535e+05  -7.514841e+04  -2.915823e+04  -5.050690e-01  -6.731704e-01  -5.401360e-01  -7.496973e-01   6.522553e-01  -1.118794e-01  -4.276205e-01  -3.484317e-01   8.341080e-01  -5.456603e-02  -4.113659e-02   5.367615e-02  -7.281422e-01  -6.426383e-01  -2.383798e-01   6.064662e-01  -7.660992e-01   2.128163e-01   3.193865e-01  -1.039126e-02  -9.475676e-01
   1.489988e-02   1.489952e-02   1.421042e-02   1.400513e+03   8.921636e-01   2.778613e-01   3.115210e-01   4.106177e-01   9.801325e-03  -2.415505e-02  -2.577188e-02  -1.064642e+00  -2.006571e+00  -1.189701e+00  -4.300472e-01   5.012550e-01   5.388190e-01   5.167432e+04   1.364490e+02   6.716983e+04  -1.488115e+05  -1.675088e+05   2.716239e+05   5.167428e+04  -4.525159e+04  -3.674034e+05  -2.523716e+05   1.362942e+02   3.642401e+04   3.238575e+04   5.068239e+05   6.716984e+04   5.167430e+04  -4.525159e+04  -3.674034e+05  -2.523716e+05   1.363249e+02   3.642400e+04   3.238574e+04   5.068239e+05   6.716986e+04   3.849283e-01   4.133097e-01   5.745783e-01   1.156644e+00   3.234435e-01  -1.118831e+00   4.814301e-01  -2.751537e-01   2.069926e+00   1.380580e-01   9.334489e-01   3.310788e-01   8.879944e-01   3.138712e-02  -4.587819e-01   4.386410e-01  -3.573346e-01   8.245641e-01   1.291411e+00   4.942774e-01   2.410317e+00   2.235830e-01  -6.235707e-03  -2.384338e-01   3.588851e-01  -3.244249e-01   2.433259e+00   2.003681e-01  -3.819631e-02  -3.469739e-01   8.225731e-01   1.722191e+00  -1.974557e+00   1.157147e-01   1.794505e-02   5.626658e-01   9.059230e-01  -3.091539e-01  -6.136324e-01   1.870594e+00   1.679596e-02  -1.664166e-02   6.013108e-02   1.469291e-02  -2.483096e-02   6.289753e-02  -5.939820e-02   2.559979e-02  -7.294038e-03   1.679596e-02  -2.483096e-02  -7.294038e-03  -9.743760e-04   3.664362e-04   4.424866e-02  -1.566729e-02   5.976464e-02   1.864887e-02   2.844489e+00   6.834854e+05   6.834855e+05   6.834855e+05   2.816991e+00   2.816991e+00   1.148915e-01   6.978495e-02   9.126945e-02  -1.420305e+00   1.773700e+00  -2.598000e+00  -9.233540e-01  -7.395600e-01  -3.605651e-01  -8.057647e-01   4.698256e-01  -6.739138e-01   5.732923e-01   4.660215e-01   6.448511e-01   1.485909e-01   7.497252e-01  -5.478189e+05   8.043044e+04   5.863690e+05  -3.353135e-01  -7.182879e-01   6.096125e-01  -8.970985e-01   4.582626e-02  -4.394476e-01  -2.877137e-01   6.942351e-01   6.597412e-01  -6.118404e-02   1.679925e-02   2.905576e-02   1.263765e-02   7.727499e-01  -6.345848e-01   9.995458e-01   7.600835e-03   2.916151e-02  -2.735793e-02   6.346651e-01   7.723029e-01
