     VARIABLES=
              x              y              z      nomin_den    nomin_voidr      fabric_xx      fabric_yy      fabric_zz      fabric_xy      fabric_xz      fabric_yz       sigma_xx       sigma_yy       sigma_zz       sigma_xy       sigma_xz       sigma_yz    sigmaDot_xx    sigmaDot_yy    sigmaDot_zz    sigmaDot_xy    sigmaDot_xz    sigmaDot_yz       Oldro_xx       Oldro_xy       Oldro_xz       Oldro_yx       Oldro_yy       Oldro_yz       Oldro_zx       Oldro_zy       Oldro_zz       Trues_xx       Trues_xy       Trues_xz       Trues_yx       Trues_yy       Trues_yz       Trues_zx       Trues_zy       Trues_zz           F_xX           F_xY           F_xZ           F_yX           F_yY           F_yZ           F_zX           F_zY           F_zZ           R_xX           R_xY           R_xZ           R_yX           R_yY           R_yZ           R_zX           R_zY           R_zZ           U_xX           U_yY           U_zZ           U_xY           U_xZ           U_yZ       Green_xx       Green_yy       Green_zz       Green_xy       Green_xz       Green_yz      Green_vol      Green_shr       Euler_xx       Euler_yy       Euler_zz       Euler_xy       Euler_xz       Euler_yz      Euler_vol      Euler_shr           l_xx           l_xy           l_xz           l_yx           l_yy           l_yz           l_zx           l_zy           l_zz           d_xx           d_yy           d_zz           d_xy           d_xz           d_yz           w_xy           w_xz           w_yz     norm_sigma  norm_sigmaDot     norm_Oldro     norm_Trues         norm_F         norm_U         norm_l         norm_d         norm_w              p              q        sigma_1        sigma_2        sigma_3     sigma_1_v1     sigma_1_v2     sigma_1_v3     sigma_2_v1     sigma_2_v2     sigma_2_v3     sigma_3_v1     sigma_3_v2     sigma_3_v3     sigmaDot_1     sigmaDot_2     sigmaDot_3  sigmaDot_1_v1  sigmaDot_1_v2  sigmaDot_1_v3  sigmaDot_2_v1  sigmaDot_2_v2  sigmaDot_2_v3  sigmaDot_3_v1  sigmaDot_3_v2  sigmaDot_3_v3            d_1            d_2            d_3         d_1_v1         d_1_v2         d_1_v3         d_2_v1         d_2_v2         d_2_v3         d_3_v1         d_3_v2         d_3_v3
ZONE I=2, J=2, K=2, DATAPACKING=POINT, STRANDID=5, SOLUTIONTIME=43
   5.106811e-03   5.105921e-03   4.875227e-03   1.590684e+03   6.659500e-01   3.295930e-01   3.535503e-01   3.027721e-01  -3.592209e-02  -2.759136e-02   9.282308e-03  -5.046264e+00  -6.406605e+00  -4.350722e+00   1.184228e+00   4.704508e-01   1.143302e+00  -3.910469e+03  -1.720164e+04   1.037733e+03   3.600342e+04   3.497928e+04   5.950300e+04  -3.910520e+03   4.400270e+04   3.510533e+04   2.800386e+04  -1.720200e+04   6.762817e+04   3.485368e+04   5.137814e+04   1.037543e+03  -3.910265e+03   4.400265e+04   3.510531e+04   2.800380e+04  -1.720167e+04   6.762811e+04   3.485365e+04   5.137808e+04   1.037763e+03   1.030895e+00  -9.024736e-04   4.641132e-03   2.602264e-02   9.883484e-01   1.356008e-03  -6.468295e-03  -6.295287e-03   1.029897e+00   9.998969e-01  -1.333802e-02   5.326277e-03   1.331788e-02   9.999041e-01   3.799039e-03  -5.376438e-03  -3.727712e-03   9.999786e-01   1.031170e+00   9.882891e-01   1.029905e+00   1.229417e-02  -8.784641e-04  -2.545185e-03   3.173165e-02  -1.156352e-02   3.035548e-02   1.241490e-02  -9.209355e-04  -2.573739e-03   1.684120e-02   3.198326e-02   2.922360e-02  -1.184655e-02   2.863125e-02   1.248937e-02  -7.766991e-04  -2.387420e-03   1.533610e-02   3.090950e-02  -6.187139e-03  -2.298599e-02   4.559143e-02   5.315085e-03  -2.476543e-02   1.085794e-02  -8.161698e-04   8.647784e-03  -1.956630e-02  -6.187139e-03  -2.476543e-02  -1.956630e-02  -8.835453e-03   2.238763e-02   9.752861e-03  -1.415054e-02   2.320380e-02   1.105077e-03   9.558201e+00   1.126637e+05   1.126640e+05   1.126638e+05   1.760979e+00   1.760979e+00   6.215285e-02   4.881830e-02   3.846752e-02  -5.267864e+00   3.693479e+00  -7.438705e+00  -5.188846e+00  -3.176040e+00  -4.339204e-01   8.629753e-01  -2.588179e-01  -7.282950e-01  -1.668671e-01   6.646366e-01  -5.303768e-01  -4.768951e-01  -7.009076e-01  -6.028605e+04  -3.062254e+04   7.083422e+04   2.485012e-02   7.592948e-01  -6.502721e-01  -8.578558e-01   3.501805e-01   3.761077e-01   5.132893e-01   5.484934e-01   6.600675e-01  -4.481382e-02  -1.624419e-02   1.053915e-02  -5.098315e-01  -5.474905e-01   6.635707e-01  -2.954851e-01   8.358657e-01   4.626198e-01  -8.079359e-01   3.978293e-02  -5.879259e-01
   5.106811e-03   5.105921e-03   1.420281e-02   1.655804e+03   6.004307e-01   2.845501e-01   2.611241e-01   4.543258e-01  -1.125090e-02   2.312997e-02  -4.273529e-02  -2.743703e+00  -6.425510e-01  -1.511321e+00   3.535622e-02  -7.171056e-01   8.227034e-02   6.664593e+02   8.189449e+04  -8.514224e+03   4.950407e+04  -2.676146e+04   7.870905e+04   6.657898e+02   1.654672e+04  -1.920077e+04   8.246172e+04   8.189441e+04   1.948884e+05  -3.432307e+04  -3.747009e+04  -8.514505e+03   6.663656e+02   1.654676e+04  -1.920062e+04   8.246166e+04   8.189454e+04   1.948883e+05  -3.432292e+04  -3.747010e+04  -8.514187e+03   1.056059e+00  -2.270030e-01  -3.334172e-01   2.342821e-01   7.278775e-01  -2.828150e-01  -4.221939e-01   6.426883e-01   8.873014e-01   9.882754e-01  -1.252879e-01   8.726227e-02   1.515691e-01   8.739257e-01  -4.618233e-01  -1.839989e-02   4.696348e-01   8.826690e-01   1.086955e+00   9.663803e-01   8.847092e-01  -1.258432e-01  -3.887003e-01   2.113214e-01   1.741979e-01  -2.807896e-03  -1.077245e-02  -1.702695e-01  -3.964899e-01   2.200451e-01   5.353918e-02   5.721894e-01  -3.208101e-01  -3.858918e-01  -2.442884e-01   3.165148e-01  -5.555478e-01   2.795753e-01  -3.169968e-01   8.099392e-01  -1.094608e-01  -5.234491e-02  -5.059384e-02   5.905297e-02  -5.595039e-02   1.313796e-02  -9.947478e-02   1.927890e-02  -4.445649e-02  -1.094608e-01  -5.595039e-02  -4.445649e-02   3.354031e-03  -7.503431e-02   1.620843e-02  -5.569894e-02   2.444047e-02  -3.070468e-03   3.374608e+00   2.340630e+05   2.340632e+05   2.340632e+05   1.822426e+00   1.822426e+00   1.905649e-01   1.699903e-01   8.612939e-02  -1.632525e+00   2.270398e+00  -3.109070e+00  -1.182518e+00  -6.059865e-01   9.032153e-01  -1.159657e-01   4.132240e-01   4.074342e-01  -7.095850e-02  -9.104736e-01  -1.349055e-01  -9.907153e-01   1.684241e-02  -5.341144e+04  -2.161723e+04   1.490754e+05   8.517760e-01  -4.406221e-01   2.834251e-01  -9.374908e-02   4.040636e-01   9.099141e-01   5.154500e-01   8.016139e-01  -3.028637e-01  -1.600554e-01  -5.683064e-02   7.018359e-03  -8.261782e-01   1.125678e-01  -5.520489e-01  -1.954685e-01  -9.762459e-01   9.346634e-02  -5.284142e-01   1.851280e-01   8.285566e-01
   5.106811e-03   1.489203e-02   4.875227e-03   1.567074e+03   6.910493e-01   3.089284e-01   3.266786e-01   3.264183e-01   1.611802e-02   9.845318e-03   1.623473e-02  -3.621892e+00  -4.917171e+00  -4.681231e+00  -9.987103e-01   2.819158e-01  -1.205635e+00   1.512796e+04   1.130604e+04  -4.667186e+03  -4.579626e+04   6.633282e+04   3.748660e+04   1.512788e+04  -2.864047e+04   1.093654e+05  -6.295247e+04   1.130569e+04  -2.464944e+04   2.330044e+04   9.962274e+04  -4.667247e+03   1.512805e+04  -2.864042e+04   1.093654e+05  -6.295243e+04   1.130591e+04  -2.464938e+04   2.330042e+04   9.962279e+04  -4.667032e+03   1.007657e+00   1.044242e-02  -5.920299e-03   4.261755e-02   1.016648e+00   2.399663e-02   4.381223e-02   5.897392e-02   1.017745e+00   9.995910e-01  -1.575726e-02  -2.386702e-02   1.534879e-02   9.997342e-01  -1.720200e-02   2.413173e-02   1.682863e-02   9.995671e-01   1.008956e+00   1.017206e+00   1.017033e+00   2.746561e-02   1.901038e-02   4.121079e-02   9.554457e-03   1.858025e-02   1.820751e-02   2.821661e-02   1.982335e-02   4.217735e-02   1.544741e-02   6.318387e-02   5.746011e-03   1.282997e-02   1.590752e-02   2.412094e-02   1.639086e-02   3.945609e-02   1.149450e-02   5.697268e-02  -2.285282e-03  -2.812408e-02   9.363788e-03  -1.126862e-02  -3.853906e-02   1.885997e-02   1.839492e-02  -1.235487e-03  -5.148775e-03  -2.285282e-03  -3.853906e-02  -5.148775e-03  -1.969635e-02   1.387935e-02   8.812240e-03  -8.427728e-03  -4.515565e-03   1.004773e-02   8.025178e+00   1.679216e+05   1.679218e+05   1.679218e+05   1.758603e+00   1.758603e+00   5.672932e-02   5.323033e-02   1.961498e-02  -4.406765e+00   2.871498e+00  -5.936231e+00  -4.639052e+00  -2.645011e+00   2.288947e-01   7.932806e-01   5.641924e-01  -6.351570e-01  -3.175022e-01   7.041080e-01   7.376875e-01  -5.195174e-01   4.311831e-01  -1.232676e+05   3.052175e+04   1.145126e+05  -4.062717e-01  -6.587934e-01   6.331940e-01  -8.461678e-01   9.700106e-03  -5.328283e-01  -3.448817e-01   7.522614e-01   5.613906e-01  -5.134263e-02  -6.880445e-03   1.224996e-02  -4.262796e-01  -8.563564e-01   2.914436e-01  -3.946518e-01   4.659630e-01   7.919144e-01  -8.139629e-01   2.225582e-01  -5.365931e-01
   5.106811e-03   1.489203e-02   1.420281e-02   1.567820e+03   6.902451e-01   3.641355e-01   3.019319e-01   3.339327e-01   8.460092e-02   5.035837e-02  -3.474584e-02  -5.120089e+00  -5.902698e+00  -2.903478e+00  -2.552122e+00  -3.780254e-01   1.936876e-01   1.575261e+04   4.715131e+04   2.164667e+04  -2.528356e+05   8.482178e+04  -1.600319e+04   1.575454e+04  -1.619423e+04   1.932541e+05  -4.894725e+05   4.715276e+04  -6.741577e+04  -2.361479e+04   3.540445e+04   2.164853e+04   1.575200e+04  -1.619574e+04   1.932541e+05  -4.894735e+05   4.714983e+04  -6.741586e+04  -2.361517e+04   3.540473e+04   2.164709e+04   9.499190e-01   6.614851e-02  -1.002578e-01   5.370236e-02   9.276616e-01   1.684784e-01   1.714587e-01  -1.160961e-02   1.237654e+00   9.919765e-01   1.880066e-02  -1.250165e-01  -7.950858e-03   9.962005e-01   8.672588e-02   1.261720e-01  -8.503605e-02   9.883570e-01   9.635036e-01   9.263678e-01   1.250389e+00   5.677725e-02   5.536430e-02   6.070818e-02  -3.268596e-02  -6.746675e-02   2.851116e-01   5.533139e-02   6.300873e-02   6.764518e-02   6.165295e-02   2.565418e-01  -5.164274e-02  -8.448047e-02   1.695342e-01   5.772099e-02   5.781978e-03   7.606844e-02   1.113700e-02   1.940391e-01   1.951312e-01   3.903505e-02  -3.527520e-01   3.597397e-01  -5.425050e-02  -6.606170e-01  -2.614249e-01   5.850274e-03   3.545365e-01   1.951312e-01  -5.425050e-02   3.545365e-01   1.993874e-01  -3.070884e-01  -3.273834e-01  -1.603523e-01  -4.566357e-02  -3.332336e-01   9.159870e+00   5.352487e+05   5.352466e+05   5.352472e+05   1.835734e+00   1.835734e+00   9.627449e-01   8.057248e-01   5.269586e-01  -4.642088e+00   4.761171e+00  -7.611542e+00  -4.128449e+00  -2.186275e+00  -6.397087e-01  -7.685353e-01  -1.123810e-02  -6.061746e-01   5.134457e-01  -6.073927e-01  -4.725729e-01   3.817422e-01   7.943222e-01  -4.583970e+05   1.828547e+04   5.246621e+05   7.177822e-01   6.960831e-01  -1.603471e-02  -6.922237e-02   4.842697e-02  -9.964252e-01   6.928182e-01  -7.163262e-01  -8.294453e-02  -2.382838e-01  -3.517855e-02   7.688795e-01   9.685080e-02  -8.916512e-01  -4.422420e-01  -8.377448e-01   1.668830e-01  -5.199363e-01   5.374045e-01   4.208422e-01  -7.308134e-01
   1.489233e-02   5.105921e-03   4.875227e-03   1.701532e+03   5.574198e-01   3.289368e-01   3.328682e-01   2.654677e-01   1.517246e-02   9.667978e-02  -2.493205e-02  -9.467393e+00  -6.478032e+00  -5.709297e+00  -3.729160e+00  -4.430265e+00  -1.767293e+00  -3.725979e+05  -2.940903e+04   1.704808e+05   3.954598e+05   1.226461e+04  -3.971787e+05  -3.725965e+05   9.150176e+05  -3.303057e+05  -1.240954e+05  -2.941034e+04   7.143691e+04   3.548318e+05  -8.658001e+05   1.704790e+05  -3.725951e+05   9.150182e+05  -3.303050e+05  -1.240948e+05  -2.940933e+04   7.143726e+04   3.548325e+05  -8.657999e+05   1.704799e+05   9.994193e-01  -3.732060e-02   2.038828e-02   1.214097e-04   1.061461e+00   1.719042e-02  -2.680857e-02   1.749735e-02   8.874405e-01   9.995143e-01  -1.837281e-02   2.517005e-02   1.836997e-02   9.998312e-01   3.442750e-04  -2.517213e-02   1.182652e-04   9.996831e-01   9.996110e-01   1.061969e+00   8.876784e-01  -1.824392e-02  -1.644602e-03   1.691788e-02  -2.211957e-04   6.419881e-02  -1.058691e-01  -1.881957e-02  -1.706244e-03   1.650695e-02  -1.396381e-02   1.032923e-01  -3.988194e-04   5.517723e-02  -1.349259e-01  -1.722380e-02  -5.196015e-03   1.887584e-02  -2.671584e-02   1.168144e-01  -1.310903e-02   2.269672e-01  -1.323539e-02   5.498188e-02  -1.234742e-01  -3.497843e-02  -1.836765e-02  -4.093797e-01  -1.898184e-02  -1.310903e-02  -1.234742e-01  -1.898184e-02   1.409745e-01  -1.580152e-02  -2.221791e-01   8.599265e-02   2.566130e-03   1.872006e-01   1.542928e+01   1.418143e+06   1.418144e+06   1.418144e+06   1.707694e+00   1.707694e+00   4.895334e-01   3.933854e-01   2.913603e-01  -7.218241e+00   1.052026e+01  -1.408965e+01  -4.998992e+00  -2.566082e+00   7.700725e-01   4.351991e-01   4.664655e-01  -1.668167e-01   8.431125e-01  -5.112079e-01  -6.157601e-01   3.158529e-01   7.218562e-01  -8.510540e+05  -4.093955e+05   1.028923e+06  -3.287450e-01   6.610673e-01   6.744752e-01  -9.127745e-01  -4.057233e-01  -4.723625e-02   2.424239e-01  -6.311725e-01   7.367849e-01  -3.332862e-01  -2.920718e-02   2.069284e-01  -3.177116e-01   7.817260e-01   5.366226e-01  -8.371987e-01   3.442214e-02  -5.458145e-01   4.451491e-01   6.226713e-01  -6.435237e-01
   1.489233e-02   5.105921e-03   1.420281e-02   1.313316e+03   1.017793e+00   2.325028e-01   4.005745e-01   3.169226e-01   4.214337e-02   9.417220e-02  -9.523266e-02  -2.690894e+00  -2.277859e+00  -3.495152e-02  -1.517691e+00  -1.917525e-02  -1.407382e-02  -2.339488e+04  -1.145819e+04   5.889911e+02  -3.808711e+04  -4.349659e+03  -1.774803e+03  -2.339522e+04  -4.593239e+04  -6.980659e+03  -3.024436e+04  -1.145980e+04   1.054859e+03  -1.716335e+03  -4.602756e+03   5.890338e+02  -2.339575e+04  -4.593264e+04  -6.980638e+03  -3.024472e+04  -1.146025e+04   1.054837e+03  -1.716364e+03  -4.602740e+03   5.890268e+02   1.183987e+00   8.534935e-02  -6.750909e-01  -1.953364e-01   8.073253e-01   3.368414e-01  -2.548898e-01  -6.156389e-03   1.535540e+00   9.800585e-01   1.320878e-01  -1.484523e-01  -1.140071e-01   9.856663e-01   1.243556e-01   1.627502e-01  -1.049512e-01   9.810696e-01   1.141163e+00   8.076730e-01   1.648579e+00  -9.395369e-03  -4.501213e-01   8.168527e-02   2.524749e-01  -1.704518e-01   9.635470e-01  -2.753916e-02  -6.282448e-01   1.024343e-01   3.485234e-01   9.895117e-01   5.181759e-02  -2.491329e-01   1.299684e-01  -5.272054e-02  -2.354452e-01   1.446464e-01  -2.244896e-02   3.986687e-01   1.900807e-02  -1.441519e-01   1.313174e-01  -2.564081e-01  -1.792587e-01  -3.987358e-01   3.405983e-01   1.551145e-01   3.605471e-01   1.900807e-02  -1.792587e-01   3.605471e-01  -2.002800e-01   2.359578e-01  -1.218107e-01   5.612808e-02  -1.046404e-01  -2.769251e-01   4.149883e+00   6.145950e+04   6.146128e+04   6.146193e+04   2.256356e+00   2.256356e+00   7.518751e-01   6.194685e-01   4.261162e-01  -1.667902e+00   3.956725e+00  -4.271211e+00  -7.345447e-01   2.050809e-03   7.471856e-01   6.644926e-01   1.277705e-02   6.458405e-01  -7.304812e-01   2.220072e-01  -1.568555e-01   1.576286e-01   9.749613e-01  -4.862063e+04   4.886799e+02   1.386786e+04   7.674748e-01   6.352554e-01   8.621475e-02   1.846009e-01  -9.020180e-02  -9.786655e-01  -6.139258e-01   7.670164e-01  -1.864964e-01  -3.044611e-01  -3.367578e-02   5.384334e-01   5.475217e-01   8.357776e-01  -4.118058e-02  -6.828205e-01   4.746830e-01   5.553668e-01   4.837108e-01  -2.759564e-01   8.305853e-01
   1.489233e-02   1.489203e-02   4.875227e-03   1.573296e+03   6.843621e-01   3.500479e-01   3.333231e-01   3.166289e-01   1.271814e-02  -2.503400e-02  -1.095720e-02  -1.107003e+00  -8.648199e-01  -1.149767e+00   3.674247e-02  -9.051670e-02   3.465710e-02   9.909923e+03   1.140870e+03  -3.503514e+04   1.166274e+05  -1.542645e+04  -4.214814e+04   9.909801e+03  -2.712387e+04  -1.915393e+04   2.603787e+05   1.140985e+03  -1.268803e+04  -1.169928e+04  -7.160815e+04  -3.503525e+04   9.909829e+03  -2.712387e+04  -1.915393e+04   2.603787e+05   1.141007e+03  -1.268803e+04  -1.169928e+04  -7.160815e+04  -3.503522e+04   1.113891e+00   3.067847e-02  -1.462497e-01  -1.125446e-01   8.625380e-01   1.412270e-01   3.369662e-02  -1.056121e-01   1.055835e+00   9.943922e-01   7.368926e-02  -7.585543e-02  -6.375223e-02   9.899821e-01   1.259808e-01   8.437894e-02  -1.204384e-01   9.891283e-01   1.117663e+00   8.688776e-01   1.073242e+00  -3.339373e-02  -6.534283e-02   1.872174e-03   1.272771e-01  -1.219665e-01   7.806088e-02  -3.323016e-02  -7.161122e-02   2.909014e-03   2.779050e-02   1.776394e-01   9.466746e-02  -1.547754e-01   5.086596e-02  -5.958492e-02  -4.033265e-02   2.515197e-02  -3.080654e-03   1.771922e-01  -4.999103e-02   9.240499e-04  -5.898320e-02  -3.864432e-02   6.466652e-02  -2.857390e-03  -7.128835e-02   6.689545e-02  -3.998050e-02  -4.999103e-02   6.466652e-02  -3.998050e-02  -1.886013e-02  -6.513578e-02   3.201903e-02   1.978418e-02   6.152576e-03  -3.487642e-02   1.821796e+00   2.750495e+05   2.750494e+05   2.750494e+05   1.779534e+00   1.779534e+00   1.510555e-01   1.397372e-01   5.736955e-02  -1.040530e+00   3.409931e-01  -1.246736e+00  -1.020300e+00  -8.545534e-01   6.441316e-01  -1.118782e-01   7.566887e-01   7.357817e-01  -1.797907e-01  -6.529170e-01  -2.090928e-01  -9.773221e-01   3.349092e-02  -2.631762e+05  -3.785608e+04   2.770479e+05  -6.732551e-01   7.146395e-01   1.897841e-01  -2.659282e-01   5.471420e-03  -9.639773e-01   6.899346e-01   6.994716e-01  -1.863591e-01  -1.106929e-01   1.027609e-04   8.528515e-02  -7.237825e-01   4.784585e-02  -6.883674e-01  -6.187374e-01  -4.866065e-01   6.167480e-01   3.054552e-01  -8.723101e-01  -3.818013e-01
   1.489233e-02   1.489203e-02   1.420281e-02   1.407009e+03   8.834284e-01   4.198635e-01   3.133136e-01   2.668229e-01   9.552600e-02  -2.799853e-02   1.023912e-02  -5.652322e-01  -1.057245e+00  -1.226632e-01  -2.076412e-01   1.477786e-01  -1.640557e-02   1.352221e+03   1.233073e+04   4.446509e+02  -2.510320e+04   5.781308e+04  -3.651339e+04   1.352177e+03   5.337052e+03   1.135664e+05  -5.554383e+04   1.233047e+04   8.848681e+03   2.059713e+03  -8.187506e+04   4.446919e+02   1.352187e+03   5.337054e+03   1.135664e+05  -5.554383e+04   1.233048e+04   8.848680e+03   2.059712e+03  -8.187506e+04   4.446940e+02   8.156285e-01  -6.924231e-02   1.032316e+00   9.477453e-01   3.191893e-01  -8.281492e-01   7.230359e-01  -6.488781e-01   2.142069e+00   4.063186e-01   7.305353e-01   5.488382e-01   8.506740e-01  -8.316870e-02  -5.190729e-01   3.335549e-01  -6.777914e-01   6.552404e-01   1.378800e+00   3.626735e-01   2.400014e+00   2.695515e-02   4.294616e-01  -6.288564e-01   5.431260e-01  -2.361405e-01   2.669983e+00  -1.115640e-01   8.029522e-01  -8.628789e-01   9.923228e-01   2.210418e+00  -1.120050e+01  -1.799523e+00  -3.960388e+00   4.761689e+00   7.134363e+00  -2.988149e+00  -5.653471e+00   1.193015e+01  -8.804528e-03  -8.321839e-02  -3.013354e-03  -1.762186e-01  -8.827375e-02  -1.430649e-01  -5.173237e-02   1.875465e-01   7.956460e-02  -8.804528e-03  -8.827375e-02   7.956460e-02  -1.297185e-01  -2.737286e-02   2.224078e-02   4.650012e-02   2.435951e-02  -1.653057e-01   1.269507e+00   1.514962e+05   1.514961e+05   1.514961e+05   2.992313e+00   2.992313e+00   3.324232e-01   2.243701e-01   2.452819e-01  -5.817136e-01   9.813580e-01  -1.193383e+00  -4.769175e-01  -7.484014e-02  -4.146377e-01  -9.092320e-01  -3.705127e-02  -8.610272e-01   3.788285e-01   3.392949e-01   2.944617e-01  -1.725866e-01   9.399501e-01  -9.157656e+04  -8.457347e+02   1.065499e+05   3.987414e-01   6.895451e-01   6.045931e-01  -8.283816e-01  -1.201289e-02   5.600353e-01   3.934325e-01  -7.241431e-01   5.664165e-01  -1.842168e-01   4.791758e-02   1.187856e-01  -5.939500e-01  -8.044781e-01   6.194936e-03   5.404287e-01  -3.932733e-01   7.438232e-01  -5.959531e-01   4.451417e-01   6.683477e-01
