     VARIABLES=
              x              y              z      nomin_den    nomin_voidr      fabric_xx      fabric_yy      fabric_zz      fabric_xy      fabric_xz      fabric_yz       sigma_xx       sigma_yy       sigma_zz       sigma_xy       sigma_xz       sigma_yz    sigmaDot_xx    sigmaDot_yy    sigmaDot_zz    sigmaDot_xy    sigmaDot_xz    sigmaDot_yz       Oldro_xx       Oldro_xy       Oldro_xz       Oldro_yx       Oldro_yy       Oldro_yz       Oldro_zx       Oldro_zy       Oldro_zz       Trues_xx       Trues_xy       Trues_xz       Trues_yx       Trues_yy       Trues_yz       Trues_zx       Trues_zy       Trues_zz           F_xX           F_xY           F_xZ           F_yX           F_yY           F_yZ           F_zX           F_zY           F_zZ           R_xX           R_xY           R_xZ           R_yX           R_yY           R_yZ           R_zX           R_zY           R_zZ           U_xX           U_yY           U_zZ           U_xY           U_xZ           U_yZ       Green_xx       Green_yy       Green_zz       Green_xy       Green_xz       Green_yz      Green_vol      Green_shr       Euler_xx       Euler_yy       Euler_zz       Euler_xy       Euler_xz       Euler_yz      Euler_vol      Euler_shr           l_xx           l_xy           l_xz           l_yx           l_yy           l_yz           l_zx           l_zy           l_zz           d_xx           d_yy           d_zz           d_xy           d_xz           d_yz           w_xy           w_xz           w_yz     norm_sigma  norm_sigmaDot     norm_Oldro     norm_Trues         norm_F         norm_U         norm_l         norm_d         norm_w              p              q        sigma_1        sigma_2        sigma_3     sigma_1_v1     sigma_1_v2     sigma_1_v3     sigma_2_v1     sigma_2_v2     sigma_2_v3     sigma_3_v1     sigma_3_v2     sigma_3_v3     sigmaDot_1     sigmaDot_2     sigmaDot_3  sigmaDot_1_v1  sigmaDot_1_v2  sigmaDot_1_v3  sigmaDot_2_v1  sigmaDot_2_v2  sigmaDot_2_v3  sigmaDot_3_v1  sigmaDot_3_v2  sigmaDot_3_v3            d_1            d_2            d_3         d_1_v1         d_1_v2         d_1_v3         d_2_v1         d_2_v2         d_2_v3         d_3_v1         d_3_v2         d_3_v3
ZONE I=2, J=2, K=2, DATAPACKING=POINT, STRANDID=5, SOLUTIONTIME=24
   5.059936e-03   5.059938e-03   4.830329e-03   1.550819e+03   7.087746e-01   3.037762e-01   3.299176e-01   2.958836e-01  -8.914664e-04  -2.653056e-02   1.059920e-03  -2.398167e+00  -4.876185e+00  -3.498100e+00   2.685636e-02   5.334040e-01   7.982312e-01  -2.210138e+03  -1.296910e+04  -4.970181e+03   1.118729e+04   3.933179e+04   3.975527e+04  -2.210163e+03   2.692053e+04   4.272654e+04  -4.545921e+03  -1.296921e+04   5.941615e+04   3.593720e+04   2.009458e+04  -4.970065e+03  -2.210190e+03   2.692053e+04   4.272655e+04  -4.545918e+03  -1.296927e+04   5.941616e+04   3.593721e+04   2.009459e+04  -4.970104e+03   1.009759e+00   4.594542e-04  -1.586116e-01   2.080146e-02   9.947505e-01  -1.412504e-02  -2.817769e-02  -2.087331e-02   8.442363e-01   9.974655e-01  -1.078873e-02  -7.032910e-02   1.111406e-02   9.999293e-01   4.236088e-03   7.027843e-02  -5.006993e-03   9.975148e-01   1.005450e+00   9.947796e-01   8.532334e-01   1.004706e-02  -9.903497e-02  -1.663990e-02   1.041962e-02  -5.017818e-03  -1.309540e-01   1.087218e-02  -9.212094e-02  -1.587289e-02  -4.185073e-02   1.408098e-01   3.762376e-03  -5.892849e-03  -2.269068e-01   8.098862e-03  -1.124756e-01  -2.173562e-02  -7.634576e-02   2.007106e-01  -4.553074e-03   1.015994e-02   2.809015e-03  -1.092131e-02  -1.066222e-02   5.926766e-03   3.833644e-02   1.741610e-02   2.636061e-02  -4.553074e-03  -1.066222e-02   2.636061e-02  -3.806835e-04   2.057273e-02   1.167143e-02   1.054062e-02  -1.776371e-02  -5.744669e-03   6.614677e+00   8.941056e+04   8.941073e+04   8.941075e+04   1.657979e+00   1.657979e+00   5.355199e-02   4.414186e-02   3.032014e-02  -3.590817e+00   2.828170e+00  -5.335735e+00  -3.336928e+00  -2.099789e+00  -7.772179e-03   8.951968e-01  -4.456034e-01  -4.909439e-01   3.847977e-01   7.816040e-01   8.711565e-01   2.248410e-01   4.365007e-01  -4.862816e+04  -6.490176e+03   3.496892e+04   5.721172e-01   4.567969e-01  -6.811891e-01   4.865890e-01  -8.576299e-01  -1.664395e-01  -6.602371e-01  -2.362362e-01  -7.129371e-01  -1.935916e-02  -8.289909e-03   3.879439e-02   6.372434e-01   6.277803e-01  -4.470042e-01  -6.473710e-01   7.507487e-01   1.314807e-01   4.181288e-01   2.055924e-01   8.848164e-01
   5.059936e-03   5.059938e-03   1.425117e-02   1.622037e+03   6.337486e-01   2.408565e-01   3.095160e-01   4.183775e-01  -4.586400e-02  -4.780513e-03   2.899373e-02  -2.618873e+00  -6.821819e-01  -1.354713e+00  -4.663965e-02  -8.584047e-01  -1.888537e-02   4.227332e+04   9.867822e+04   2.294257e+04   1.166874e+05   4.386917e+04   1.083972e+04   4.227375e+04  -2.766279e+05   8.756599e+04   5.100030e+05   9.867821e+04   8.480560e+03   1.726383e+02   1.319909e+04   2.294255e+04   4.227365e+04  -2.766280e+05   8.756596e+04   5.100030e+05   9.867818e+04   8.480561e+03   1.726043e+02   1.319909e+04   2.294250e+04   8.915305e-01   3.385828e-02  -2.126413e-01   3.115960e-02   9.117759e-01  -2.135684e-01   1.324705e-02  -4.681260e-02   1.077996e+00   9.936521e-01  -6.708273e-03  -1.122969e-01  -2.445846e-03   9.966963e-01  -8.118152e-02   1.124705e-01   8.094085e-02   9.903530e-01   8.872848e-01   9.047475e-01   1.108813e+00   2.614825e-02  -8.952642e-02  -1.241825e-01  -1.020135e-01  -8.266346e-02   1.264515e-01   2.898806e-02  -9.097533e-02  -1.261950e-01  -1.940847e-02   2.340711e-01  -1.276875e-01  -1.167790e-01   1.821524e-02   4.071894e-02  -1.085229e-01  -1.366767e-01  -7.541712e-02   2.272174e-01   1.180420e-01   5.166362e-02  -1.120123e-01   2.985517e-02  -1.293010e-02   5.143530e-02   9.462472e-02   1.109624e-02  -6.703243e-02   1.180420e-01  -1.293010e-02  -6.703243e-02   4.075940e-02  -8.693786e-03   3.126577e-02   1.090423e-02  -1.033185e-01   2.016953e-02   3.265597e+00   5.971522e+05   5.971523e+05   5.971523e+05   1.698102e+00   1.698102e+00   2.154628e-01   1.549948e-01   1.496691e-01  -1.551923e+00   2.306051e+00  -3.082151e+00  -9.149724e-01  -6.586454e-01   8.881439e-01  -1.057652e-02   4.594437e-01   4.352889e-01  -3.012717e-01  -8.483861e-01  -1.473904e-01  -9.534797e-01   2.629688e-01  -4.404790e+05   2.294662e+04   5.814265e+05   7.261043e-01  -6.873135e-01   1.930550e-02  -2.596739e-02   6.459331e-04   9.996626e-01   6.870941e-01   7.263606e-01   1.737872e-02  -8.458276e-02  -7.028634e-03   1.296909e-01  -1.298005e-01   4.576538e-01  -8.796049e-01  -2.424816e-01   8.455229e-01   4.757033e-01   9.614336e-01   2.750346e-01   1.223388e-03
   5.059936e-03   1.494003e-02   4.830329e-03   1.516299e+03   7.476759e-01   3.135692e-01   3.280242e-01   3.425336e-01   3.410209e-02  -1.267434e-02   1.126008e-02  -6.177119e+00  -4.913358e+00  -7.248667e+00  -1.226126e+00   1.657948e+00  -1.340295e+00  -1.581668e+04  -6.688997e+03   5.540909e+03  -5.044371e+04   3.469925e+04  -2.626230e+04  -1.581671e+04  -4.246045e+04   2.675800e+04  -5.842675e+04  -6.689170e+03  -2.118938e+04   4.264110e+04  -3.133512e+04   5.540981e+03  -1.581664e+04  -4.246043e+04   2.675798e+04  -5.842674e+04  -6.689116e+03  -2.118936e+04   4.264108e+04  -3.133511e+04   5.541062e+03   1.009731e+00  -3.543957e-03  -8.068399e-03   3.331479e-02   1.016938e+00   1.456030e-02   2.280410e-02   3.796148e-02   9.995854e-01   9.997244e-01  -1.811468e-02  -1.493403e-02   1.794088e-02   9.997707e-01  -1.169116e-02   1.514239e-02   1.142001e-02   9.998201e-01   1.010396e+00   1.017203e+00   9.993558e-01   1.527661e-02   7.331158e-03   2.611839e-02   1.059335e-02   1.780854e-02  -2.760016e-04   1.558316e-02   7.566403e-03   2.639063e-02   9.375295e-03   3.793725e-02   9.127153e-03   1.538631e-02  -9.259056e-04   1.384271e-02   6.524125e-03   2.589507e-02   7.862518e-03   3.600854e-02  -2.880073e-03   2.289395e-02   1.543932e-02   3.792741e-03  -2.077570e-02   8.298454e-03   2.884919e-02  -5.357243e-03   1.256949e-02  -2.880073e-03  -2.077570e-02   1.256949e-02   1.334334e-02   2.214425e-02   1.470606e-03   9.550602e-03  -6.704935e-03   6.827848e-03   1.126934e+01   9.750542e+04   9.750550e+04   9.750546e+04   1.748214e+00   1.748214e+00   4.800674e-02   4.403484e-02   1.912013e-02  -6.113048e+00   4.690834e+00  -8.413606e+00  -6.797221e+00  -3.128317e+00  -5.411573e-01   8.929241e-02   8.361672e-01  -6.396199e-01  -6.892363e-01  -3.403523e-01   5.459259e-01  -7.190133e-01   4.300985e-01  -7.170008e+04  -2.792425e+04   8.265957e+04  -7.731906e-01  -6.080426e-01   1.801679e-01  -2.367137e-01   5.402773e-01   8.075067e-01   5.883391e-01  -5.817084e-01   5.616693e-01  -3.054929e-02  -1.047251e-02   2.993552e-02  -5.875880e-01   7.606996e-01   2.758197e-01   5.434183e-01   6.235423e-01  -5.620423e-01   5.995306e-01   1.803638e-01   7.797640e-01
   5.059936e-03   1.494003e-02   1.425117e-02   1.503263e+03   7.628315e-01   3.829911e-01   2.971689e-01   2.875819e-01   1.007242e-01  -6.134382e-02  -5.888401e-02  -4.043604e+00  -4.820450e+00  -3.225904e-01  -2.725206e+00  -2.593049e-01  -5.966207e-01  -2.282397e+04  -2.466876e+04  -7.574833e+03  -6.303133e+04  -7.911031e+03  -9.948593e+02  -2.282371e+04  -5.951098e+04  -8.113935e+03  -6.655149e+04  -2.466876e+04   3.642585e+03  -7.707904e+03  -5.632393e+03  -7.574859e+03  -2.282377e+04  -5.951102e+04  -8.113939e+03  -6.655153e+04  -2.466883e+04   3.642572e+03  -7.707908e+03  -5.632398e+03  -7.574864e+03   1.061259e+00   1.117251e-01  -1.275129e-01   6.652168e-02   9.820688e-01  -4.524488e-02   1.716993e-01  -6.851151e-02   1.065843e+00   9.900546e-01   1.944581e-02  -1.393334e-01  -1.699525e-02   9.996796e-01   1.875611e-02   1.396535e-01  -1.620157e-02   9.900679e-01   1.073552e+00   9.850367e-01   1.072175e+00   8.435561e-02   2.337282e-02  -6.497830e-02   8.008804e-02  -9.182302e-03   7.716366e-02   8.606739e-02   2.233520e-02  -6.585124e-02   4.935647e-02   1.405469e-01   5.212538e-02  -3.732270e-02   6.746242e-02   8.826685e-02   2.264536e-02  -5.070884e-02   2.742170e-02   1.370057e-01   4.246687e-02  -1.332367e-02  -8.679752e-03   2.256352e-02  -2.013784e-02   5.920052e-02   5.747209e-02  -4.361600e-02  -6.995603e-03   4.246687e-02  -2.013784e-02  -6.995603e-03   4.619925e-03   2.439617e-02   7.792262e-03  -1.794359e-02  -3.307592e-02   5.140826e-02   7.452932e+00   9.658046e+04   9.658025e+04   9.658034e+04   1.815527e+00   1.815527e+00   1.083050e-01   6.010307e-02   9.009771e-02  -3.062215e+00   6.209204e+00  -7.112021e+00  -1.779409e+00  -2.952144e-01   6.518196e-01   7.557456e-01   6.308575e-02   7.577228e-01  -6.524494e-01  -1.288480e-02  -3.142263e-02  -5.620008e-02   9.979249e-01  -9.136421e+04  -6.562192e+03   4.285883e+04   6.986984e-01   7.066306e-01   1.117753e-01   5.651967e-02   1.012287e-01  -9.932564e-01  -7.131802e-01   7.003042e-01   3.078984e-02  -2.468874e-02  -1.316992e-02   5.319209e-02   1.485651e-01   8.130467e-01  -5.629241e-01  -3.683940e-01   5.737705e-01   7.314871e-01   9.177223e-01   9.870443e-02   3.847638e-01
   1.494002e-02   5.059938e-03   4.830329e-03   1.600547e+03   6.556837e-01   3.603974e-01   3.263982e-01   2.382044e-01   6.930338e-02  -4.319684e-02   2.812392e-02  -1.227993e+01  -7.090500e+00  -9.070205e+00  -5.587253e+00  -4.789290e+00  -2.858082e+00  -5.619755e+04  -4.236429e+02  -7.540233e+04   3.437097e+05   9.585041e+04   1.169339e+05  -5.619782e+04   8.018556e+02   1.975816e+05   6.866170e+05  -4.238064e+02  -3.802738e+04  -5.881660e+03   2.718948e+05  -7.540244e+04  -5.619783e+04   8.018508e+02   1.975816e+05   6.866170e+05  -4.238122e+02  -3.802738e+04  -5.881663e+03   2.718948e+05  -7.540245e+04   9.993521e-01   1.934632e-03  -5.229541e-03   3.529355e-02   1.055863e+00   2.422476e-02   3.555134e-02  -1.808337e-03   9.651073e-01   9.996557e-01  -1.588113e-02  -2.088535e-02   1.615025e-02   9.997879e-01   1.278079e-02   2.067795e-02  -1.311369e-02   9.997002e-01   1.000313e+00   1.055632e+00   9.652368e-01   1.894902e-02   1.511994e-02   1.164655e-02   6.070832e-04   5.742633e-02  -3.397685e-02   1.956711e-02   1.496984e-02   1.191133e-02   8.018853e-03   6.195357e-02  -1.731063e-03   5.148634e-02  -3.685438e-02   1.638272e-02   1.599586e-02   1.039253e-02   4.300301e-03   5.899796e-02  -2.374136e-03  -1.418712e-02  -5.570970e-03  -2.057900e-03  -6.608797e-03  -8.176552e-03  -3.269498e-02   4.549705e-03   9.801358e-03  -2.374136e-03  -6.608797e-03   9.801358e-03  -8.122509e-03  -1.913298e-02  -1.813423e-03  -6.064608e-03   1.356201e-02  -6.363128e-03   2.022625e+01   7.711899e+05   7.711896e+05   7.711896e+05   1.745885e+00   1.745885e+00   3.922298e-02   3.187551e-02   2.285594e-02  -9.480211e+00   1.329086e+01  -1.820459e+01  -6.458274e+00  -3.777774e+00  -7.511488e-01  -4.611516e-01  -4.723502e-01  -3.675897e-01  -3.021459e-01   8.795372e-01  -5.483187e-01   8.342943e-01   5.744196e-02  -7.708636e+05  -6.875781e+04   7.075979e+05  -6.670529e-01   6.919372e-01  -2.761582e-01   3.694019e-01  -1.471613e-02  -9.291532e-01   6.469796e-01   7.218077e-01   2.457865e-01  -2.059835e-02  -2.752986e-03   2.416976e-02  -7.267816e-01  -4.850232e-01  -4.863549e-01   3.280233e-01  -8.672022e-01   3.746479e-01   6.034810e-01  -1.127514e-01  -7.893655e-01
   1.494002e-02   5.059938e-03   1.425117e-02   1.339350e+03   9.785710e-01   2.757044e-01   3.018111e-01   2.796273e-01   4.578834e-02   4.330213e-02   3.546622e-02  -2.504884e+00  -1.613637e+00  -3.027544e-02  -1.230405e+00   2.635323e-03   4.831282e-02  -1.339719e+04  -1.798506e+04  -7.401102e+02  -1.745233e+04   2.669162e+03  -2.362068e+04  -1.339730e+04  -3.069072e+04   4.667654e+03  -4.214027e+03  -1.798509e+04  -5.681920e+03   6.705762e+02  -4.155958e+04  -7.401061e+02  -1.339719e+04  -3.069065e+04   4.667654e+03  -4.213983e+03  -1.798502e+04  -5.681923e+03   6.705759e+02  -4.155958e+04  -7.401048e+02   1.042446e+00  -1.843101e-01  -2.752051e-03  -7.850508e-03   8.852663e-01  -7.809153e-02  -2.488883e-01   1.399579e-01   9.491363e-01   9.893490e-01  -7.886141e-02   1.223498e-01   9.132829e-02   9.907997e-01  -9.987504e-02  -1.133479e-01   1.099853e-01   9.874490e-01   1.058837e+00   9.070498e-01   9.446864e-01  -1.173611e-01  -1.174373e-01   2.723497e-02   7.435051e-02  -8.137260e-02  -4.651720e-02  -1.169585e-01  -1.192423e-01   3.210728e-02  -1.784643e-02   2.178925e-01   2.693643e-03  -1.547443e-01  -5.043458e-02  -9.854314e-02  -1.405310e-01   5.604823e-03  -6.749507e-02   2.188031e-01  -2.626410e-02   7.204337e-03  -5.423114e-03  -3.824431e-03  -7.562294e-03  -3.222553e-02   5.753310e-03  -4.927716e-02  -1.110398e-02  -2.626410e-02  -7.562294e-03  -1.110398e-02   1.689953e-03   1.650977e-04  -4.075135e-02   5.514384e-03  -5.588212e-03   8.525816e-03   3.467614e+00   5.696388e+04   5.696399e+04   5.696391e+04   1.700859e+00   1.700859e+00   6.682853e-02   6.478735e-02   1.639061e-02  -1.382932e+00   2.770718e+00  -3.148090e+00  -9.716503e-01  -2.905558e-02  -8.393529e-01  -5.435161e-01   8.770066e-03  -5.434918e-01   8.387950e-01  -3.224350e-02  -1.016857e-02   3.183013e-02   9.994416e-01  -5.201738e+04  -1.340395e+04   3.329897e+04   7.369560e-02   7.752379e-01   6.273556e-01  -9.949542e-01   1.420926e-02   9.931877e-02  -6.808142e-02   6.315095e-01  -7.723734e-01  -5.019231e-02  -2.621593e-02   3.147788e-02   5.378340e-02  -6.911126e-01  -7.207431e-01  -9.983687e-01  -2.336401e-02  -5.209693e-02   1.916539e-02   7.223693e-01  -6.912418e-01
   1.494002e-02   1.494003e-02   4.830329e-03   1.528136e+03   7.341386e-01   2.567005e-01   3.866429e-01   3.066566e-01  -5.328153e-03  -6.037104e-03   8.582006e-03  -1.403300e+00  -2.517159e+00  -1.790924e+00   2.869770e-01  -2.694851e-01  -5.102723e-01   4.380105e+04  -1.002309e+04   1.700701e+05   2.446285e+05   1.409149e+05   5.056218e+05   4.380104e+04   5.814704e+04   3.136821e+05   4.311101e+05  -1.002310e+04  -4.960555e+04  -3.185228e+04   1.060849e+06   1.700699e+05   4.380112e+04   5.814701e+04   3.136821e+05   4.311101e+05  -1.002298e+04  -4.960553e+04  -3.185226e+04   1.060849e+06   1.700700e+05   1.172897e+00   4.157286e-02  -6.021734e-02   3.800886e-02   8.715900e-01   1.065423e-01  -2.133806e-01  -1.608196e-01   9.231837e-01   9.975566e-01  -1.216474e-02   6.879500e-02   1.979633e-03   9.892502e-01   1.462196e-01  -6.983419e-02  -1.457261e-01   9.868572e-01   1.185008e+00   8.851505e-01   9.224864e-01   5.442741e-02  -1.243291e-01  -2.840243e-02   2.113320e-01  -1.063698e-01  -6.637720e-02   5.810231e-02  -1.317844e-01  -2.905409e-02   1.286165e-02   2.621191e-01   1.066042e-01  -1.517427e-01  -8.719691e-02   2.938939e-02  -1.315297e-01  -2.527972e-02  -4.411182e-02   2.217533e-01  -1.114397e-02  -1.003005e-02   2.871025e-02   1.303183e-02  -7.106672e-03   3.278737e-02  -4.207243e-02   1.975212e-02  -3.185077e-02  -1.114397e-02  -7.106672e-03  -3.185077e-02   1.500893e-03  -6.681089e-03   2.626974e-02  -1.153094e-02   3.539134e-02   6.517628e-03   3.533390e+00   1.203101e+06   1.203101e+06   1.203101e+06   1.754186e+00   1.754186e+00   7.429078e-02   5.160565e-02   5.344135e-02  -1.903794e+00   1.396054e+00  -2.769816e+00  -1.766013e+00  -1.175554e+00  -8.819419e-02  -8.814026e-01  -4.640595e-01  -6.039114e-01   4.178026e-01  -6.787724e-01   7.921571e-01   2.203871e-01  -5.691368e-01  -1.089064e+06   8.359910e+04   1.209313e+06   2.941839e-01  -7.272326e-01   6.201521e-01   9.266369e-01   5.809907e-02  -3.714412e-01  -2.340939e-01  -6.839278e-01  -6.909723e-01  -4.959899e-02  -1.032487e-02   9.822441e-03   1.656837e-01  -5.228073e-01   8.361946e-01   9.796391e-01   1.847399e-01  -7.860230e-02   1.133847e-01  -8.321921e-01  -5.427709e-01
   1.494002e-02   1.494003e-02   1.425117e-02   1.360828e+03   9.473436e-01   3.296794e-01   2.999899e-01   3.036641e-01   1.048256e-01  -7.012249e-03  -5.976358e-02  -3.471438e-01  -6.515824e-01  -2.661839e-02   8.298505e-02   1.684426e-02  -9.595667e-02  -6.822878e+02   3.223573e+03  -1.232631e+03   9.722671e+03   3.175891e+03  -1.686944e+03  -6.822576e+02   6.341982e+03   3.098445e+03   1.310324e+04   3.223531e+03  -5.465691e+02   3.253274e+03  -2.827295e+03  -1.232625e+03  -6.822651e+02   6.341985e+03   3.098446e+03   1.310324e+04   3.223517e+03  -5.465717e+02   3.253274e+03  -2.827297e+03  -1.232625e+03   1.123261e+00  -2.960956e-01   1.250304e+00   1.184698e-01   1.200961e+00  -1.542749e+00   1.488995e+00  -1.106668e+00   2.476385e+00   2.769168e-01   6.686503e-01   6.900898e-01   6.334967e-01   4.129544e-01  -6.543322e-01   7.224950e-01  -6.183651e-01   3.092338e-01   1.461891e+00   9.822825e-01   2.638074e+00  -1.207511e-01   1.158080e+00  -1.332379e+00   1.246428e+00   8.773468e-01   4.537909e+00  -9.190688e-01   2.454486e+00  -2.481763e+00   2.220561e+00   4.773534e+00  -1.357581e+02  -2.122132e+01  -7.382747e+01   5.390125e+01   1.005283e+02  -3.997441e+01  -7.693563e+01   1.544718e+02   3.427314e-02  -4.013333e-02   7.856213e-03  -9.912260e-02  -5.390865e-02   6.223639e-02  -7.480880e-02   5.278739e-03   4.133116e-02   3.427314e-02  -5.390865e-02   4.133116e-02  -6.962796e-02  -3.347629e-02   3.375756e-02   2.949463e-02   4.133251e-02   2.847883e-02   7.676745e-01   1.589878e+04   1.589868e+04   1.589868e+04   4.040219e+00   4.040219e+00   1.636592e-01   1.414413e-01   8.233290e-02  -3.417816e-01   5.560999e-01  -6.605134e-01  -3.463970e-01  -1.843433e-02   5.246846e-02  -9.923775e-01  -1.115078e-01  -9.984426e-01  -5.001117e-02  -2.472281e-02   1.895772e-02   1.126313e-01  -9.934560e-01  -1.349267e+04   2.826276e+02   1.451870e+04  -7.144277e-01   6.161116e-01   3.316619e-01  -2.519641e-01   2.156734e-01  -9.433976e-01   6.527689e-01   7.575562e-01  -1.154935e-03  -9.370420e-02   9.916076e-03   1.054838e-01   4.529325e-01   8.848661e-01  -1.089228e-01  -5.635170e-01   1.894661e-01  -8.040841e-01  -6.908696e-01   4.255756e-01   5.844524e-01
