     VARIABLES=
              x              y              z      nomin_den    nomin_voidr      fabric_xx      fabric_yy      fabric_zz      fabric_xy      fabric_xz      fabric_yz       sigma_xx       sigma_yy       sigma_zz       sigma_xy       sigma_xz       sigma_yz    sigmaDot_xx    sigmaDot_yy    sigmaDot_zz    sigmaDot_xy    sigmaDot_xz    sigmaDot_yz       Oldro_xx       Oldro_xy       Oldro_xz       Oldro_yx       Oldro_yy       Oldro_yz       Oldro_zx       Oldro_zy       Oldro_zz       Trues_xx       Trues_xy       Trues_xz       Trues_yx       Trues_yy       Trues_yz       Trues_zx       Trues_zy       Trues_zz           F_xX           F_xY           F_xZ           F_yX           F_yY           F_yZ           F_zX           F_zY           F_zZ           R_xX           R_xY           R_xZ           R_yX           R_yY           R_yZ           R_zX           R_zY           R_zZ           U_xX           U_yY           U_zZ           U_xY           U_xZ           U_yZ       Green_xx       Green_yy       Green_zz       Green_xy       Green_xz       Green_yz      Green_vol      Green_shr       Euler_xx       Euler_yy       Euler_zz       Euler_xy       Euler_xz       Euler_yz      Euler_vol      Euler_shr           l_xx           l_xy           l_xz           l_yx           l_yy           l_yz           l_zx           l_zy           l_zz           d_xx           d_yy           d_zz           d_xy           d_xz           d_yz           w_xy           w_xz           w_yz     norm_sigma  norm_sigmaDot     norm_Oldro     norm_Trues         norm_F         norm_U         norm_l         norm_d         norm_w              p              q        sigma_1        sigma_2        sigma_3     sigma_1_v1     sigma_1_v2     sigma_1_v3     sigma_2_v1     sigma_2_v2     sigma_2_v3     sigma_3_v1     sigma_3_v2     sigma_3_v3     sigmaDot_1     sigmaDot_2     sigmaDot_3  sigmaDot_1_v1  sigmaDot_1_v2  sigmaDot_1_v3  sigmaDot_2_v1  sigmaDot_2_v2  sigmaDot_2_v3  sigmaDot_3_v1  sigmaDot_3_v2  sigmaDot_3_v3            d_1            d_2            d_3         d_1_v1         d_1_v2         d_1_v3         d_2_v1         d_2_v2         d_2_v3         d_3_v1         d_3_v2         d_3_v3
ZONE I=2, J=2, K=2, DATAPACKING=POINT, STRANDID=5, SOLUTIONTIME=23
   5.057436e-03   5.057438e-03   4.827829e-03   1.548429e+03   7.114123e-01   2.862672e-01   2.989987e-01   3.621025e-01  -1.155047e-02  -5.201005e-02  -1.666297e-02  -2.168710e+00  -4.449569e+00  -4.015661e+00   1.127563e-01   4.869735e-01   1.576712e+00  -8.975803e+03  -1.687711e+04   1.231838e+04  -8.560688e+03  -9.508979e+04   1.052317e+05  -8.975818e+03   3.409138e+04  -1.054606e+05  -5.121267e+04  -1.687732e+04   1.044012e+05  -8.471893e+04   1.060624e+05   1.231838e+04  -8.975783e+03   3.409138e+04  -1.054606e+05  -5.121268e+04  -1.687725e+04   1.044012e+05  -8.471894e+04   1.060624e+05   1.231845e+04   1.009706e+00   1.404979e-04  -1.628129e-01   2.241674e-02   9.953605e-01  -1.616892e-02  -3.189490e-02  -2.132789e-02   8.264574e-01   9.973864e-01  -1.179764e-02  -7.128207e-02   1.207605e-02   9.999210e-01   3.476076e-03   7.123543e-02  -4.327797e-03   9.974501e-01   1.005066e+00   9.953726e-01   8.358995e-01   1.064085e-02  -1.037096e-01  -1.782357e-02   1.051335e-02  -4.401271e-03  -1.450993e-01   1.156742e-02  -9.555774e-02  -1.687168e-02  -4.632909e-02   1.502088e-01   2.537370e-03  -5.354494e-03  -2.611152e-01   8.446929e-03  -1.207609e-01  -2.400835e-02  -8.797745e-02   2.242886e-01  -1.309553e-03   1.232802e-02   7.333442e-03   2.519963e-03  -1.886568e-02   1.331168e-02   8.021884e-03   7.715293e-03   3.953465e-03  -1.309553e-03  -1.886568e-02   3.953465e-03   7.423990e-03   7.677663e-03   1.051349e-02   4.904027e-03  -3.442207e-04   2.798192e-03   6.880390e+00   2.115423e+05   2.115424e+05   2.115424e+05   1.649856e+00   1.649856e+00   2.977324e-02   2.867839e-02   7.999730e-03  -3.544647e+00   4.647920e+00  -6.588387e+00  -2.525558e+00  -1.519996e+00   1.722499e-02   7.376700e-01  -6.749417e-01  -8.022659e-01   4.130665e-01   4.309821e-01   5.967184e-01   5.340590e-01   5.989225e-01  -1.140679e+05  -6.052751e+04   1.610608e+05   2.649892e-01  -6.437694e-01   7.178730e-01  -8.247230e-01  -5.370616e-01  -1.771917e-01   4.996126e-01  -5.450925e-01  -6.732470e-01  -2.384309e-02  -6.793938e-03   1.441525e-02  -2.065256e-01   9.326814e-01  -2.957237e-01  -8.151534e-01   3.156432e-03   5.792365e-01   5.411766e-01   3.606873e-01   7.596266e-01
   5.057436e-03   5.057438e-03   1.425367e-02   1.619537e+03   6.362706e-01   2.585491e-01   3.084008e-01   3.759072e-01  -2.600834e-02   3.180795e-02   2.381200e-02  -2.618973e+00  -7.166355e-01  -1.741423e+00   2.373224e-01  -8.066017e-01  -6.635108e-03  -1.330825e+04  -1.417915e+04   5.767960e+03   8.879878e+04  -5.626377e+04   2.087697e+04  -1.330784e+04   3.078755e+04  -9.304516e+04   1.468102e+05  -1.417920e+04  -2.159404e+04  -1.948221e+04   6.334815e+04   5.767840e+03  -1.330787e+04   3.078755e+04  -9.304517e+04   1.468102e+05  -1.417921e+04  -2.159404e+04  -1.948222e+04   6.334815e+04   5.767820e+03   8.287706e-01  -1.664413e-01   3.463998e-02  -6.760908e-02   5.622552e-01   2.103884e-01  -2.166134e-02  -1.887670e-01   1.313877e+00   9.969312e-01  -7.227406e-02   3.007632e-02   6.435276e-02   9.754021e-01   2.108303e-01  -4.457407e-02  -2.082478e-01   9.770599e-01   8.228420e-01   5.997647e-01   1.329134e+00  -1.213337e-01  -1.049209e-02  -7.090221e-02  -1.540496e-01  -3.102667e-01   3.858678e-01  -8.593313e-02  -6.987950e-03  -6.774509e-02  -2.614947e-02   4.403671e-01  -2.682565e-01  -1.074759e+00   1.983441e-01  -3.266822e-01   5.754730e-02   1.644022e-01  -3.815573e-01   8.578165e-01   1.156937e-01   4.356291e-02  -1.087894e-01   2.572667e-02  -2.480523e-02   3.837457e-02   9.631489e-02   2.625594e-02  -7.931892e-02   1.156937e-01  -2.480523e-02  -7.931892e-02   3.464479e-02  -6.237230e-03   3.231526e-02   8.918122e-03  -1.025521e-01   6.059313e-03   3.475770e+00   1.908632e+05   1.908633e+05   1.908633e+05   1.686150e+00   1.686150e+00   2.147675e-01   1.576664e-01   1.458299e-01  -1.692344e+00   2.597978e+00  -3.362064e+00  -1.256049e+00  -4.589177e-01  -8.365230e-01   1.384002e-01  -5.301648e-01  -4.015291e-01   5.035331e-01   7.650025e-01  -3.728320e-01  -8.528187e-01   3.656453e-01  -1.794195e+05   1.689485e+04   1.408052e+05  -6.503319e-01   6.951938e-01  -3.062255e-01   3.882741e-01  -4.228461e-02  -9.205733e-01  -6.529255e-01  -7.175776e-01  -2.424267e-01  -9.636416e-02  -1.584649e-02   1.237802e-01  -9.949339e-02   4.491378e-01  -8.879056e-01  -2.056888e-01   8.637765e-01   4.599807e-01   9.735467e-01   2.283973e-01   6.442579e-03
   5.057436e-03   1.494253e-02   4.827829e-03   1.513962e+03   7.503738e-01   3.103349e-01   3.155068e-01   3.085845e-01  -5.198318e-03  -2.080401e-02  -6.925592e-03  -5.081075e+00  -3.590544e+00  -7.086817e+00  -1.008012e+00   2.151481e-03  -1.785474e+00  -8.636585e+03   2.848175e+04   1.336619e+03  -1.941803e+05  -9.666570e+03   1.362961e+05  -8.636551e+03   8.355259e+04  -3.191770e+04  -4.719131e+05   2.848170e+04  -1.630106e+04   1.258456e+04   2.888930e+05   1.336418e+03  -8.636467e+03   8.355260e+04  -3.191770e+04  -4.719131e+05   2.848176e+04  -1.630102e+04   1.258456e+04   2.888930e+05   1.336535e+03   1.008510e+00  -5.083528e-03  -8.887957e-03   3.195510e-02   1.019393e+00   1.542152e-02   2.118394e-02   3.748830e-02   9.995905e-01   9.997287e-01  -1.818001e-02  -1.456057e-02   1.802044e-02   9.997769e-01  -1.101627e-02   1.475760e-02   1.075089e-02   9.998333e-01   1.009125e+00   1.019661e+00   9.993834e-01   1.384100e-02   6.143910e-03   2.632616e-02   9.280891e-03   2.029673e-02  -2.510037e-04   1.412109e-02   6.352237e-03   2.661936e-02   9.775539e-03   3.748924e-02   8.059044e-03   1.774593e-02  -9.598227e-04   1.244280e-02   5.364331e-03   2.601015e-02   8.281718e-03   3.554604e-02   3.279672e-03   9.507689e-05   2.422043e-03   1.287521e-02  -5.425921e-03  -1.201594e-02  -3.329510e-03   8.823838e-04  -1.442521e-02   3.279672e-03  -5.425921e-03  -1.442521e-02   6.485141e-03  -4.537336e-04  -5.566778e-03  -6.390065e-03   2.875777e-03  -6.449162e-03   9.880716e+00   5.616696e+05   5.616695e+05   5.616695e+05   1.748901e+00   1.748901e+00   2.400368e-02   1.986926e-02   1.346809e-02  -5.252812e+00   4.291577e+00  -7.617068e+00  -5.466008e+00  -2.675359e+00   8.231255e-02   3.526923e-01   9.321120e-01  -9.219898e-01  -3.281347e-01   2.055782e-01   3.783642e-01  -8.763194e-01   2.981691e-01  -5.481116e+05   9.825750e+03   5.594676e+05   6.145013e-01   6.923933e-01  -3.781264e-01  -5.221751e-01  -2.313952e-03  -8.528351e-01  -5.913723e-01   7.215165e-01   3.601286e-01  -1.739646e-02  -6.362826e-03   7.187832e-03   1.299193e-01  -4.751027e-01  -8.702864e-01  -5.077285e-01   7.220400e-01  -4.699681e-01   8.516647e-01   5.029272e-01  -1.474162e-01
   5.057436e-03   1.494253e-02   1.425367e-02   1.500946e+03   7.655528e-01   3.588527e-01   3.124425e-01   2.731492e-01   5.330602e-02  -6.049487e-02  -4.941968e-02  -3.665989e+00  -3.882245e+00  -1.122133e-01  -2.110205e+00  -4.721650e-01  -2.840692e-01  -1.268429e+05   2.133093e+04   4.664524e+05  -2.324681e+04  -1.169525e+06   1.297645e+06  -1.268426e+05  -5.276451e+05  -2.626390e+06   4.811516e+05   2.133087e+04   2.061505e+04   2.873387e+05   2.574675e+06   4.664524e+05  -1.268426e+05  -5.276451e+05  -2.626390e+06   4.811516e+05   2.133086e+04   2.061505e+04   2.873387e+05   2.574675e+06   4.664524e+05   1.048547e+00   1.193552e-01  -1.334654e-01   5.383840e-02   9.874200e-01  -4.074028e-02   1.837058e-01  -7.468197e-02   1.069778e+00   9.885692e-01   2.960490e-02  -1.478328e-01  -2.620099e-02   9.993460e-01   2.492034e-02   1.484739e-01  -2.076211e-02   9.886984e-01   1.062426e+00   9.918584e-01   1.076403e+00   8.103121e-02   2.796166e-02  -6.687572e-02   6.804888e-02  -2.589289e-03   8.194871e-02   8.229561e-02   2.719310e-02  -6.802534e-02   4.913610e-02   1.375714e-01   4.354152e-02  -3.190149e-02   7.214441e-02   8.634825e-02   2.362042e-02  -5.126025e-02   2.792815e-02   1.343169e-01   3.303487e-02  -8.624213e-03   6.710017e-03   1.428390e-02  -2.052785e-02   7.161157e-02   2.907389e-02  -5.548065e-02  -1.031632e-02   3.303487e-02  -2.052785e-02  -1.031632e-02   2.829846e-03   1.789195e-02   8.065459e-03  -1.145406e-02  -1.118194e-02   6.354611e-02   6.372859e+00   3.788654e+06   3.788654e+06   3.788654e+06   1.815163e+00   1.815163e+00   1.048531e-01   4.904575e-02   9.267512e-02  -2.553482e+00   4.411261e+00  -5.166301e+00  -2.415958e+00  -7.818780e-02  -6.742349e-01  -7.356578e-01   6.492277e-02  -7.384431e-01   6.703140e-01  -7.335458e-02  -1.044523e-02   9.739999e-02   9.951905e-01  -2.352233e+06  -2.096991e+05   2.922873e+06  -7.369567e-02   7.400649e-01  -6.684855e-01  -9.820410e-01   6.288353e-02   1.778798e-01   1.736793e-01   6.695892e-01   7.221398e-01  -2.582137e-02  -1.194010e-02   3.995217e-02   1.365521e-01   8.055352e-01  -5.765992e-01  -3.311596e-01   5.856847e-01   7.398018e-01   9.336417e-01   8.992485e-02   3.467372e-01
   1.494252e-02   5.057438e-03   4.827829e-03   1.598080e+03   6.582395e-01   4.063559e-01   2.963981e-01   2.517915e-01   1.784974e-02  -6.905257e-03   2.156025e-02  -1.232078e+01  -6.942266e+00  -8.508437e+00  -5.466116e+00  -4.654043e+00  -1.931096e+00  -7.746020e+03  -2.534572e+04   4.054850e+03  -1.229910e+04  -2.169662e+05  -2.046402e+04  -7.745784e+03  -3.154376e+04  -3.327532e+05   6.945634e+03  -2.534558e+04   4.382702e+04  -1.011793e+05  -8.475561e+04   4.054642e+03  -7.745954e+03  -3.154384e+04  -3.327532e+05   6.945563e+03  -2.534568e+04   4.382699e+04  -1.011794e+05  -8.475563e+04   4.054525e+03   9.999294e-01   3.264849e-04  -4.935225e-03   3.604171e-02   1.052731e+00   2.233192e-02   4.070111e-02  -5.184451e-03   9.632769e-01   9.995813e-01  -1.701456e-02  -2.340333e-02   1.733365e-02   9.997586e-01   1.349964e-02   2.316799e-02  -1.389965e-02   9.996350e-01   1.001078e+00   1.052544e+00   9.633423e-01   1.845392e-02   1.777113e-02   9.021293e-03   1.407234e-03   5.413527e-02  -3.578723e-02   1.902885e-02   1.753822e-02   9.256923e-03   6.585091e-03   6.106825e-02  -1.327583e-03   4.891645e-02  -3.876019e-02   1.608064e-02   1.908081e-02   7.880309e-03   2.942895e-03   5.910713e-02  -9.319493e-03   1.547534e-02   3.186498e-02  -8.023938e-03   2.296613e-02  -2.373298e-02  -2.669625e-02   1.001176e-02   1.260875e-04  -9.319493e-03   2.296613e-02   1.260875e-04   3.725700e-03   2.584369e-03  -6.860612e-03   1.174964e-02   2.928062e-02  -1.687237e-02   1.957996e+01   3.630817e+05   3.630817e+05   3.630818e+05   1.743419e+00   1.743419e+00   5.753032e-02   2.737823e-02   5.059813e-02  -9.257162e+00   1.298208e+01  -1.777806e+01  -6.309660e+00  -3.683766e+00  -7.746803e-01  -4.448770e-01  -4.493939e-01  -2.608067e-01  -4.226272e-01   8.679667e-01  -5.760645e-01   7.896016e-01   2.113740e-01  -1.344492e+05  -2.483195e+04   1.302442e+05  -5.227155e-01  -5.019918e-01  -6.890375e-01  -6.507336e-01   7.570941e-01  -5.791619e-02   5.507397e-01   4.181062e-01  -7.224078e-01  -1.088823e-02  -4.549239e-04   2.511587e-02   9.313187e-01  -1.679797e-01  -3.231536e-01   3.541445e-01   2.105707e-01   9.111760e-01   8.501241e-02   9.630383e-01  -2.555976e-01
   1.494252e-02   5.057438e-03   1.425367e-02   1.343071e+03   9.730899e-01   3.290909e-01   2.746710e-01   1.962381e-01   2.925255e-02   3.730835e-02  -4.220295e-02  -2.087576e+00  -1.640178e+00  -3.020112e-05  -1.208384e+00   9.777205e-03   4.434970e-02  -1.952559e+04  -7.811535e+03   1.887288e+00  -3.339630e+04   1.062558e+03   1.520776e+03  -1.952577e+04  -3.784919e+04   9.293574e+02  -2.894351e+04  -7.811488e+03   7.990794e+01   1.195570e+03   2.961478e+03   1.890569e+00  -1.952561e+04  -3.784912e+04   9.293575e+02  -2.894341e+04  -7.811364e+03   7.990298e+01   1.195568e+03   2.961476e+03   1.890571e+00   1.076936e+00  -1.817649e-01   2.432842e-02  -2.052658e-02   9.000265e-01  -6.338828e-02  -2.114535e-01   1.428394e-01   9.259733e-01   9.905781e-01  -7.212292e-02   1.164183e-01   8.357152e-02   9.918032e-01  -9.665477e-02  -1.084930e-01   1.054734e-01   9.884860e-01   1.088015e+00   9.208244e-01   9.242707e-01  -1.203328e-01  -8.165987e-02   3.304218e-02   1.024623e-01  -6.825534e-02  -6.898176e-02  -1.222137e-01  -8.414951e-02   3.539616e-02  -1.159161e-02   2.098462e-01   4.558779e-02  -1.381861e-01  -7.081830e-02  -9.478544e-02  -1.062362e-01   2.758193e-02  -5.447221e-02   1.989130e-01  -3.068164e-02  -2.179790e-02  -6.004551e-02   2.751734e-03   1.123588e-02  -3.652811e-02  -2.845613e-02  -3.075440e-02  -5.605051e-02  -3.068164e-02   1.123588e-02  -5.605051e-02  -9.523084e-03  -4.425082e-02  -3.364126e-02  -1.227482e-02  -1.579469e-02  -2.886855e-03   3.170777e+00   5.218832e+04   5.218844e+04   5.218825e+04   1.711856e+00   1.711856e+00   1.067115e-01   1.028124e-01   2.858242e-02  -1.242595e+00   3.094768e+00  -3.290206e+00  -4.378702e-01   2.916539e-04  -7.605066e-01  -6.492633e-01   9.320213e-03  -6.493291e-01   7.604535e-01  -9.066992e-03   1.200724e-03   1.294739e-02   9.999155e-01  -4.337965e+04   3.434131e+01   1.601007e+04   7.713910e-01   6.330863e-01  -6.448019e-02  -1.108096e-01   3.385257e-02  -9.932649e-01  -6.266396e-01   7.733406e-01   9.626560e-02  -9.916297e-02  -3.283389e-03   2.695010e-02   5.477476e-01   2.867529e-01   7.859678e-01   8.091453e-01  -4.204370e-01  -4.105078e-01  -2.127357e-01  -8.608168e-01   4.623181e-01
   1.494252e-02   1.494253e-02   4.827829e-03   1.572060e+03   6.856863e-01   2.530646e-01   2.999098e-01   2.803589e-01   1.262275e-02   2.190410e-02   6.443377e-02  -1.199357e+00  -1.971943e+00  -1.608576e+00   4.106745e-01  -2.702279e-01  -4.735795e-01  -1.134269e+04  -9.378339e+03  -9.587413e+03  -2.130786e+04   1.370426e+04   6.707153e+03  -1.134269e+04   2.252535e+04   1.142387e+04  -6.514102e+04  -9.378418e+03  -1.136598e+04   1.598462e+04   2.478044e+04  -9.587432e+03  -1.134264e+04   2.252533e+04   1.142388e+04  -6.514103e+04  -9.378346e+03  -1.136597e+04   1.598463e+04   2.478046e+04  -9.587373e+03   1.106980e+00   9.998069e-02  -2.543624e-02  -1.107460e-01   5.781519e-01  -2.635354e-01  -3.697000e-01  -2.653692e-01   7.483587e-01   9.671672e-01   1.567469e-01   2.000453e-01  -1.525526e-01   9.876281e-01  -3.631053e-02  -2.032619e-01   4.600918e-03   9.791136e-01   1.162676e+00   5.854497e-01   7.372089e-01   6.243890e-02  -1.365109e-01  -2.608189e-01   1.871742e-01  -2.926617e-01  -1.849307e-01   7.237782e-02  -1.378201e-01  -1.767490e-01  -9.680606e-02   3.980925e-01  -1.530736e-01  -1.669224e+00  -9.945742e-01  -5.425305e-01  -6.062145e-01  -1.197385e+00  -9.389574e-01   1.887702e+00  -1.079145e-02  -1.181263e-02   3.557459e-02   1.550699e-02  -1.884531e-02   8.733350e-03  -4.081897e-02   2.713186e-02  -6.861483e-03  -1.079145e-02  -1.884531e-02  -6.861483e-03   1.847179e-03  -2.622187e-03   1.793261e-02  -1.365981e-02   3.819678e-02  -9.199256e-03   2.981140e+00   7.866728e+04   7.866729e+04   7.866728e+04   1.555366e+00   1.555366e+00   6.813835e-02   3.438624e-02   5.882535e-02  -1.593292e+00   1.365875e+00  -2.345613e+00  -1.661406e+00  -7.728556e-01   4.616922e-02  -8.246886e-01  -5.636996e-01  -6.900895e-01   3.816702e-01  -6.149019e-01   7.222499e-01   4.173927e-01  -5.514875e-01  -8.634016e+04   5.386947e+02   5.549302e+04  -6.553956e-01  -6.681364e-01   3.522078e-01   3.279999e-01   1.682769e-01   9.295692e-01  -6.803475e-01   7.247597e-01   1.088607e-01  -3.219057e-02  -1.042738e-02   6.119705e-03   1.404413e-01  -8.011550e-01   5.817447e-01   9.880977e-01   1.506600e-01  -3.105786e-02   6.276348e-02  -5.791824e-01  -8.127783e-01
   1.494252e-02   1.494253e-02   1.425367e-02   1.306667e+03   1.028061e+00   3.479058e-01   2.862076e-01   2.624383e-01   4.118618e-02  -1.982861e-03  -1.115817e-02  -3.223740e-01  -6.158167e-01  -2.166147e-02  -5.099316e-03   1.882394e-02  -9.319250e-02   1.886212e+03   4.018574e+03  -1.144443e+03   1.194391e+04   4.768704e+03  -4.025433e+03   1.886211e+03   1.071198e+04   6.382518e+03   1.317582e+04   4.018528e+03  -3.247238e+02   3.154836e+03  -7.726153e+03  -1.144441e+03   1.886215e+03   1.071198e+04   6.382517e+03   1.317582e+04   4.018536e+03  -3.247218e+02   3.154836e+03  -7.726152e+03  -1.144440e+03   1.206769e+00  -3.577600e-01   1.313015e+00  -4.641703e-02   1.344553e+00  -1.572510e+00   1.662909e+00  -1.228086e+00   2.744309e+00   9.117209e-01  -3.717805e-01  -1.747691e-01   3.234754e-01   9.119376e-01  -2.524550e-01   2.532363e-01   1.736350e-01   9.516944e-01   1.506330e+00   1.145918e+00   2.779257e+00  -2.022433e-01   1.383394e+00  -1.445676e+00   1.611856e+00   1.222005e+00   5.364014e+00  -1.268169e+00   3.110516e+00  -2.977157e+00   2.732625e+00   5.817007e+00  -3.054954e+02  -5.311128e+01  -1.609004e+02   1.275777e+02   2.221285e+02  -9.282672e+01  -1.731690e+02   3.469318e+02   2.022173e-04  -2.131130e-02   3.727814e-02   1.513943e-02  -4.724545e-02   6.263037e-02  -7.733440e-02  -8.429447e-03   3.337509e-02   2.022173e-04  -4.724545e-02   3.337509e-02  -3.085938e-03  -2.002813e-02   2.710046e-02  -1.822537e-02   5.730627e-02   3.552991e-02   7.133623e-01   2.049035e+04   2.049032e+04   2.049032e+04   4.404060e+00   4.404060e+00   1.240699e-01   7.507488e-02   9.877800e-02  -3.199507e-01   5.213537e-01  -6.208231e-01  -3.202133e-01  -1.881582e-02   9.031311e-02   9.938806e-01   6.359927e-02  -9.954283e-01   8.809182e-02   3.691037e-02   3.108193e-02  -6.664200e-02   9.972927e-01  -1.463253e+04   2.438276e+03   1.695459e+04   5.965218e-01  -6.282867e-01  -4.994172e-01   5.135524e-01  -1.793979e-01   8.390950e-01  -6.167866e-01  -7.570153e-01   2.156434e-01  -5.566970e-02  -7.766011e-03   4.976757e-02   5.575474e-02  -9.516241e-01   3.021638e-01  -9.250979e-01  -1.630871e-01  -3.429234e-01   3.756132e-01  -2.604115e-01  -8.894383e-01
