     VARIABLES=
              x              y              z      nomin_den    nomin_voidr      fabric_xx      fabric_yy      fabric_zz      fabric_xy      fabric_xz      fabric_yz       sigma_xx       sigma_yy       sigma_zz       sigma_xy       sigma_xz       sigma_yz    sigmaDot_xx    sigmaDot_yy    sigmaDot_zz    sigmaDot_xy    sigmaDot_xz    sigmaDot_yz       Oldro_xx       Oldro_xy       Oldro_xz       Oldro_yx       Oldro_yy       Oldro_yz       Oldro_zx       Oldro_zy       Oldro_zz       Trues_xx       Trues_xy       Trues_xz       Trues_yx       Trues_yy       Trues_yz       Trues_zx       Trues_zy       Trues_zz           F_xX           F_xY           F_xZ           F_yX           F_yY           F_yZ           F_zX           F_zY           F_zZ           R_xX           R_xY           R_xZ           R_yX           R_yY           R_yZ           R_zX           R_zY           R_zZ           U_xX           U_yY           U_zZ           U_xY           U_xZ           U_yZ       Green_xx       Green_yy       Green_zz       Green_xy       Green_xz       Green_yz      Green_vol      Green_shr       Euler_xx       Euler_yy       Euler_zz       Euler_xy       Euler_xz       Euler_yz      Euler_vol      Euler_shr           l_xx           l_xy           l_xz           l_yx           l_yy           l_yz           l_zx           l_zy           l_zz           d_xx           d_yy           d_zz           d_xy           d_xz           d_yz           w_xy           w_xz           w_yz     norm_sigma  norm_sigmaDot     norm_Oldro     norm_Trues         norm_F         norm_U         norm_l         norm_d         norm_w              p              q        sigma_1        sigma_2        sigma_3     sigma_1_v1     sigma_1_v2     sigma_1_v3     sigma_2_v1     sigma_2_v2     sigma_2_v3     sigma_3_v1     sigma_3_v2     sigma_3_v3     sigmaDot_1     sigmaDot_2     sigmaDot_3  sigmaDot_1_v1  sigmaDot_1_v2  sigmaDot_1_v3  sigmaDot_2_v1  sigmaDot_2_v2  sigmaDot_2_v3  sigmaDot_3_v1  sigmaDot_3_v2  sigmaDot_3_v3            d_1            d_2            d_3         d_1_v1         d_1_v2         d_1_v3         d_2_v1         d_2_v2         d_2_v3         d_3_v1         d_3_v2         d_3_v3
ZONE I=2, J=2, K=2, DATAPACKING=POINT, STRANDID=5, SOLUTIONTIME=12
   5.029936e-03   5.029938e-03   4.800329e-03   1.597349e+03   6.589986e-01   2.982468e-01   3.392867e-01   3.036430e-01   4.495744e-04  -2.915063e-02  -7.419051e-03  -1.473331e+00  -3.129530e+00  -2.048350e+00  -5.794976e-03   1.429710e-01   5.998662e-01   9.745381e+04  -1.053589e+04  -1.098591e+03   2.737131e+04  -8.345695e+04   2.612696e+04   9.745386e+04   1.809600e+04  -1.965386e+05   3.664644e+04  -1.053571e+04   4.089407e+04   2.962483e+04   1.136067e+04  -1.098903e+03   9.745384e+04   1.809600e+04  -1.965386e+05   3.664644e+04  -1.053574e+04   4.089407e+04   2.962484e+04   1.136068e+04  -1.098923e+03   9.912903e-01  -1.256025e-02  -1.476608e-01   1.219584e-02   1.004765e+00  -3.619419e-02  -3.426800e-02  -2.450241e-02   8.241966e-01   9.979563e-01  -1.324664e-02  -6.251126e-02   1.288746e-02   9.998981e-01  -6.145538e-03   6.258630e-02   5.327367e-03   9.980253e-01   9.872769e-01   1.004699e+00   8.320220e-01  -1.119225e-03  -9.624209e-02  -2.984369e-02  -8.010265e-03   5.155730e-03  -1.487931e-01   3.213748e-04  -8.752986e-02  -2.735340e-02  -5.054921e-02   1.446468e-01  -1.593290e-02   3.244127e-03  -2.643502e-01  -3.947839e-03  -1.180100e-01  -4.091983e-02  -9.234633e-02   2.247883e-01   1.993132e-02   2.195957e-03   2.410821e-02  -6.493461e-02   1.069700e-02  -9.460496e-02   1.211756e-02   1.869120e-01  -2.054061e-02   1.993132e-02   1.069700e-02  -2.054061e-02  -3.136933e-02   1.811288e-02   4.615350e-02   3.356529e-02   5.995327e-03  -1.407585e-01   4.139651e+00   2.293171e+05   2.293171e+05   2.293171e+05   1.642165e+00   1.642165e+00   2.230900e-01   8.842010e-02   2.048195e-01  -2.217070e+00   2.162935e+00  -3.646738e+00  -1.664921e+00  -1.339551e+00  -1.332468e-02   8.696841e-01  -4.934289e-01  -6.402363e-01   3.716309e-01   6.723004e-01   7.680624e-01   3.248693e-01   5.518515e-01  -2.214500e+04  -9.224682e+03   1.171890e+05  -2.530472e-01   9.543116e-01  -1.589232e-01  -2.924698e-01   8.112420e-02   9.528275e-01   9.221868e-01   2.875905e-01   2.585790e-01  -6.654269e-02   2.324742e-02   5.338298e-02  -3.635284e-01  -5.821979e-01   7.272501e-01  -7.642851e-01  -2.599673e-01  -5.901569e-01  -5.326494e-01   7.703653e-01   3.504597e-01
   5.029936e-03   5.029938e-03   1.428117e-02   1.542365e+03   7.181410e-01   4.306789e-01   2.969702e-01   2.182969e-01  -4.142623e-02   2.616660e-02  -2.860019e-02  -2.668265e+00  -6.821141e-01  -1.131542e+00   2.642488e-01   1.393575e-01   2.025345e-01  -7.398413e+03  -1.848626e+03   1.674894e+05   2.019699e+05   1.079851e+06   2.126190e+05  -7.399798e+03  -5.560123e+04   4.793546e+05   4.595415e+05  -1.848564e+03   1.725279e+04   1.680346e+06   4.079855e+05   1.674888e+05  -7.398366e+03  -5.560110e+04   4.793544e+05   4.595411e+05  -1.848198e+03   1.725270e+04   1.680346e+06   4.079854e+05   1.674894e+05   9.292377e-01   8.043613e-02   1.245208e-01   2.916033e-02   9.812280e-01  -1.061462e-01   5.982358e-02  -2.509014e-02   8.958630e-01   9.989538e-01   2.681680e-02   3.704140e-02  -2.520147e-02   9.987395e-01  -4.340775e-02  -3.815876e-02   4.242885e-02   9.983705e-01   9.252479e-01   9.810837e-01   9.036233e-01   5.658100e-02   9.288058e-02  -6.466269e-02  -6.604410e-02  -1.504606e-02  -8.532847e-02   5.092811e-02   8.310396e-02  -5.830748e-02  -5.547288e-02   1.376877e-01  -9.710089e-02  -3.100149e-02  -1.604789e-01   7.291724e-02   1.328723e-01  -9.256715e-02  -9.619377e-02   2.182731e-01  -2.893863e-01   3.400706e-01  -1.217681e+00  -1.358033e-01   9.494510e-04   2.827520e-02   1.404416e-01   1.305927e-01  -2.481237e-01  -2.893863e-01   9.494510e-04  -2.481237e-01   1.021336e-01  -5.386199e-01   7.943393e-02   2.379370e-01  -6.790615e-01  -5.115874e-02   3.149488e+00   1.860774e+06   1.860773e+06   1.860773e+06   1.633145e+00   1.633145e+00   1.341539e+00   8.712150e-01   1.020153e+00  -1.493974e+00   2.313745e+00  -2.979368e+00  -1.111381e+00  -3.911726e-01  -9.310753e-01   3.274045e-01  -1.609508e-01   2.152933e-01   1.369272e-01  -9.669021e-01  -2.945295e-01  -9.349103e-01  -1.979775e-01  -1.604416e+06  -1.917207e+05   1.954379e+06  -7.291814e-01   3.510857e-02   6.834192e-01  -1.800166e-01   9.536681e-01  -2.410624e-01   6.602185e-01   2.988051e-01   6.890769e-01  -8.277526e-01   2.020690e-02   2.709851e-01   7.132936e-01  -1.534602e-01   6.838584e-01   7.329496e-02   9.867171e-01   1.449730e-01  -6.970223e-01  -5.328494e-02   7.150668e-01
   5.029936e-03   1.497003e-02   4.800329e-03   1.470555e+03   8.020402e-01   3.037147e-01   2.638586e-01   3.689347e-01   4.863667e-02   1.404377e-02   9.660171e-03  -4.778713e+00  -2.128870e+00  -6.999654e+00  -1.087937e+00   8.344775e-01  -8.273303e-01  -1.309842e+04  -4.163739e+04  -1.313672e+05  -1.586832e+05   6.742720e+04   7.412737e+05  -1.309787e+04  -1.414147e+04  -6.676977e+04  -3.032246e+05  -4.163732e+04   4.330909e+03   2.016240e+05   1.478217e+06  -1.313676e+05  -1.309794e+04  -1.414149e+04  -6.676975e+04  -3.032246e+05  -4.163735e+04   4.330893e+03   2.016240e+05   1.478217e+06  -1.313677e+05   1.004561e+00   1.580586e-02  -7.956119e-03   1.042920e-02   1.007861e+00   3.312027e-03   6.686601e-03   5.378208e-03   9.875368e-01   9.999694e-01   2.684199e-03  -7.350859e-03  -2.691460e-03   9.999959e-01  -9.781048e-04   7.348203e-03   9.978594e-04   9.999725e-01   1.004551e+00   1.007904e+00   9.875649e-01   1.313228e-02  -7.081684e-04   4.276080e-03   4.648027e-03   8.031008e-03  -1.234840e-02   1.321255e-02  -6.772995e-04   4.261744e-03   1.102104e-04   2.041132e-02   4.346375e-03   7.454381e-03  -1.270200e-02   1.287654e-02  -6.517500e-04   4.438376e-03  -3.004148e-04   2.012274e-02   4.057074e-02   5.436039e-02  -2.823858e-02   2.131862e-02  -6.994035e-04   1.471948e-02   1.644441e-02   1.633177e-03  -2.483654e-02   4.057074e-02  -6.994035e-04  -2.483654e-02   3.783951e-02  -5.897083e-03   8.176330e-03   1.652089e-02  -2.234149e-02   6.543153e-03   9.047546e+00   1.530216e+06   1.530216e+06   1.530216e+06   1.732242e+00   1.732242e+00   8.342680e-02   7.300850e-02   4.037066e-02  -4.635746e+00   4.710892e+00  -7.152274e+00  -5.004692e+00  -1.750271e+00  -1.969540e-01   7.368427e-02   9.776399e-01  -9.306844e-01  -3.275998e-01  -1.628033e-01   3.082786e-01  -9.419390e-01   1.330989e-01  -1.643177e+06   6.031371e+04   1.396760e+06   2.135228e-01   6.841301e-01  -6.974052e-01   9.753078e-01  -1.080529e-01   1.926114e-01  -5.641460e-02   7.213117e-01   6.903092e-01  -3.408091e-02  -1.392952e-02   6.304523e-02  -3.514410e-01   5.786421e-01  -7.359772e-01  -3.689543e-01   6.369005e-01   6.769273e-01   8.604429e-01   5.094419e-01  -1.034046e-02
   5.029936e-03   1.497003e-02   1.428117e-02   1.475771e+03   7.956713e-01   3.398142e-01   3.585935e-01   2.275183e-01   3.876359e-02  -1.044691e-02   2.917701e-03  -3.329498e+00  -4.033738e+00  -1.561113e-01  -1.605554e+00  -9.190939e-02  -5.657496e-01  -9.100939e+03  -1.236572e+04  -4.592140e+03  -4.780230e+04  -2.138395e+04   1.355710e+04  -9.101349e+03  -5.180288e+04  -3.695970e+04  -4.380073e+04  -1.236531e+04   8.572756e+03  -5.807213e+03   1.854307e+04  -4.591931e+03  -9.101019e+03  -5.180270e+04  -3.695969e+04  -4.380060e+04  -1.236491e+04   8.572837e+03  -5.807198e+03   1.854310e+04  -4.591916e+03   9.375475e-01   1.243477e-01  -1.717235e-01  -8.273395e-04   9.787331e-01  -4.149166e-02   2.142857e-01  -7.501568e-02   1.087070e+00   9.808065e-01   6.072917e-02  -1.852851e-01  -5.659490e-02   9.980177e-01   2.752592e-02   1.865894e-01  -1.651141e-02   9.822992e-01   9.595830e-01   9.855831e-01   1.098503e+00   5.257263e-02   3.675633e-02  -6.978709e-02  -3.754281e-02  -1.049592e-02   1.064654e-01   4.984868e-02   3.598941e-02  -7.175498e-02   1.947556e-02   1.404147e-01  -5.156796e-02  -3.743962e-02   8.952770e-02   7.476132e-02   9.387068e-03  -5.202562e-02   1.733732e-04   1.386703e-01  -1.045669e-01   9.459996e-02  -9.942438e-02   8.927509e-02   2.604179e-02  -7.363762e-02   5.182653e-02   1.819158e-01  -2.059995e-02  -1.045669e-01   2.604179e-02  -2.059995e-02   9.193752e-02  -2.379892e-02   5.413907e-02   2.662437e-03  -7.562545e-02  -1.277767e-01   5.784021e+00   8.170707e+04   8.170645e+04   8.170618e+04   1.765461e+00   1.765461e+00   2.829187e-01   1.895696e-01   2.100151e-01  -2.506449e+00   4.317041e+00  -5.100942e+00  -2.287969e+00  -1.304362e-01  -6.085881e-01  -7.905854e-01  -6.778798e-02  -7.933873e-01   6.076371e-01   3.624628e-02  -1.253471e-02  -7.584117e-02   9.970411e-01  -5.635681e+04  -9.487648e+03   3.978566e+04  -6.550225e-01  -7.316923e-01   1.886052e-01   3.936714e-01  -1.174102e-01   9.117224e-01   6.449560e-01  -6.714471e-01  -3.649527e-01  -1.670599e-01  -1.951169e-02   8.744660e-02  -8.216331e-01   4.781759e-01  -3.102689e-01  -4.345888e-01  -1.732748e-01   8.838034e-01  -3.688517e-01  -8.610015e-01  -3.501782e-01
   1.497002e-02   5.029938e-03   4.800329e-03   1.628155e+03   6.276096e-01   2.748167e-01   2.106699e-01   4.430848e-01   9.211429e-03   3.308893e-02   2.218266e-02  -7.738936e+00  -5.556928e+00  -5.086811e+00  -4.120307e+00  -3.740889e+00  -8.965210e-01   1.556226e+04  -1.733615e+04  -1.098263e+04  -1.059499e+04  -4.333374e+04   4.708494e+04   1.556418e+04  -1.016764e+04  -4.062407e+04  -1.101921e+04  -1.733615e+04   4.204119e+04  -4.604000e+04   5.213294e+04  -1.098287e+04   1.556574e+04  -1.016678e+04  -4.062321e+04  -1.101842e+04  -1.733503e+04   4.204139e+04  -4.603936e+04   5.213310e+04  -1.098185e+04   1.014496e+00  -3.274828e-02  -1.819403e-02   1.641454e-02   1.053157e+00   1.513389e-02   2.823964e-02   8.375334e-02   9.604962e-01   9.994632e-01  -2.367711e-02  -2.264456e-02   2.288883e-02   9.991440e-01  -3.445855e-02   2.344105e-02   3.392175e-02   9.991496e-01   1.014989e+00   1.055871e+00   9.595698e-01  -6.661907e-03   4.677179e-03   4.813343e-02   1.513473e-02   5.861290e-02  -3.844354e-02  -6.785377e-03   4.457353e-03   4.848947e-02   1.176803e-02   7.983840e-02   1.465700e-02   4.455885e-02  -4.308466e-02  -8.417865e-03   5.331951e-03   5.059816e-02   5.377062e-03   7.869264e-02   3.108007e-02  -2.312647e-04   1.935381e-01   1.548728e-01  -1.425122e-01   1.755124e-01   6.276218e-02   1.085113e-01  -8.945085e-02   3.108007e-02  -1.425122e-01  -8.945085e-02   7.732075e-02   1.281501e-01   1.420118e-01  -7.755201e-02   6.538796e-02   3.350056e-02   1.344963e+01   9.562119e+04   9.562173e+04   9.562098e+04   1.752315e+00   1.752315e+00   3.704567e-01   3.382510e-01   1.510774e-01  -6.127558e+00   9.226888e+00  -1.207983e+01  -4.495410e+00  -1.807432e+00   7.598424e-01   5.093217e-01   4.040185e-01  -1.525259e-02   6.352598e-01  -7.721479e-01  -6.499283e-01   5.805484e-01   4.904658e-01  -7.383387e+04  -9.862613e+03   7.093996e+04   2.999644e-01  -6.146434e-01   7.295443e-01  -7.239691e-01  -6.446797e-01  -2.454727e-01   6.212006e-01  -4.545344e-01  -6.383638e-01  -2.627435e-01  -1.164913e-01   1.783519e-01   1.017467e-01   7.312413e-01  -6.744878e-01  -6.957043e-01   5.369387e-01   4.771712e-01   7.110859e-01   4.206934e-01   5.633594e-01
   1.497002e-02   5.029938e-03   1.428117e-02   1.307985e+03   1.026017e+00   3.542589e-01   2.223049e-01   3.234362e-01   1.092271e-01   6.945210e-02   4.195489e-03  -2.105911e+00  -1.621933e+00   2.966097e-02  -9.036244e-01   2.926395e-02  -1.697263e-01  -1.837431e+04  -5.145840e+03  -6.875223e+03  -8.215582e+04   8.867528e+02   6.193685e+04  -1.837456e+04  -3.751180e+04   6.722504e+03  -1.267998e+05  -5.145924e+03   1.589073e+04  -4.950631e+03   1.079821e+05  -6.875208e+03  -1.837412e+04  -3.751163e+04   6.722490e+03  -1.267996e+05  -5.145587e+03   1.589076e+04  -4.950630e+03   1.079822e+05  -6.875214e+03   1.116622e+00  -1.313357e-02   1.145043e-01  -6.299455e-02   1.044293e+00   6.901647e-02  -9.229855e-02  -3.185643e-03   8.032036e-01   9.939777e-01   1.928666e-02   1.078718e-01  -2.372177e-02   9.989187e-01   3.998361e-02  -1.069840e-01  -4.230172e-02   9.933604e-01   1.121266e+00   1.043045e+00   8.129820e-01  -3.748613e-02   2.624759e-02   3.717335e-02   1.296663e-01   4.536492e-02  -1.684947e-01  -4.007798e-02   2.468794e-02   3.400541e-02   2.178842e-03   1.897222e-01   1.015229e-01   4.114169e-02  -2.685524e-01  -2.737781e-02  -4.310469e-03   4.019700e-02  -4.196258e-02   2.360864e-01  -1.806290e-01   2.831988e-01  -5.860720e-02  -1.585682e-01   6.173054e-02   8.505299e-03  -3.978325e-01  -4.022126e-02  -8.859471e-02  -1.806290e-01   6.173054e-02  -8.859471e-02   6.231529e-02  -2.282199e-01  -1.585798e-02   2.208835e-01   1.696127e-01   2.436328e-02   2.961761e+00   1.728559e+05   1.728556e+05   1.728554e+05   1.735821e+00   1.735821e+00   5.594886e-01   3.958844e-01   3.953518e-01  -1.232728e+00   2.589452e+00  -2.873561e+00  -8.768929e-01   5.227114e-02   7.855155e-01   6.176433e-01   3.849776e-02   6.162314e-01  -7.749787e-01  -1.402390e-01   5.678277e-02  -1.338835e-01   9.893690e-01  -1.735922e+05  -1.657836e+04   1.597752e+05  -5.601328e-01  -7.027884e-01   4.385655e-01  -6.458277e-01   3.891217e-02  -7.624909e-01   5.188043e-01  -7.103339e-01  -4.756762e-01  -3.708394e-01   2.753623e-02   1.358100e-01  -7.769502e-01   8.907862e-02  -6.232282e-01   3.128790e-01  -8.043980e-01  -5.050254e-01  -5.463105e-01  -5.873746e-01   5.971063e-01
   1.497002e-02   1.497003e-02   4.800329e-03   1.494501e+03   7.731667e-01   3.728733e-01   2.434771e-01   3.836496e-01   1.075718e-02   6.436789e-02   9.623893e-02  -3.842338e-01  -1.086219e-01  -5.014466e-01   5.650575e-02  -1.889833e-01  -6.250506e-02  -4.895487e+03  -9.027882e+02  -5.510228e+03   2.301018e+03  -8.777661e+03  -7.699829e+03  -4.895398e+03   1.078496e+03  -4.988434e+03   3.523481e+03  -9.027670e+02  -5.488001e+03  -1.256686e+04  -9.911671e+03  -5.510303e+03  -4.895432e+03   1.078502e+03  -4.988452e+03   3.523485e+03  -9.027765e+02  -5.488004e+03  -1.256687e+04  -9.911679e+03  -5.510347e+03   1.104157e+00   6.492871e-02  -1.612043e-01  -1.035509e-02   8.325135e-01  -8.054718e-02   5.688261e-02  -1.622835e-01   9.012123e-01   9.938100e-01   3.318699e-02  -1.060204e-01  -2.809470e-02   9.983952e-01   4.916930e-02   1.074820e-01  -4.588633e-02   9.931476e-01   1.103727e+00   8.407789e-01   9.081673e-01   2.369504e-02  -6.107942e-02  -1.271211e-01   1.112526e-01  -1.381848e-01  -7.767087e-02   2.691981e-02  -6.294874e-02  -1.118876e-01  -3.486768e-02   2.133382e-01   9.594300e-02  -2.724637e-01  -1.451137e-01   2.031766e-02  -3.961849e-02  -1.888920e-01  -1.072114e-01   3.112789e-01   5.009355e-02  -6.230904e-02   1.157679e-01  -6.506296e-02   6.103804e-02   4.470095e-03  -1.180147e-01  -5.563972e-02  -2.375335e-02   5.009355e-02   6.103804e-02  -2.375335e-02  -6.368600e-02  -1.123404e-03  -2.558481e-02   1.376961e-03   1.168913e-01   3.005491e-02   7.060761e-01   1.949081e+04   1.949080e+04   1.949084e+04   1.670567e+00   1.670567e+00   2.129795e-01   1.273685e-01   1.706973e-01  -3.314341e-01   4.903720e-01  -6.276735e-01  -3.030497e-01  -6.357907e-02  -5.617451e-01  -8.646439e-02  -8.227797e-01  -7.718102e-01   4.128957e-01   4.835557e-01  -2.979118e-01  -9.066648e-01   2.986762e-01  -1.920917e+04  -5.850333e+03   1.375100e+04   5.885839e-01   2.943762e-01   7.529354e-01  -6.072508e-01   7.758059e-01   1.713817e-01   5.336810e-01   5.580931e-01  -6.353870e-01  -3.722384e-02   2.827199e-03   1.217749e-01   3.241356e-01   4.295417e-01   8.428701e-01  -6.798448e-01  -5.137964e-01   5.232821e-01   6.578352e-01  -7.426353e-01   1.254820e-01
   1.497002e-02   1.497003e-02   1.428117e-02   1.284750e+03   1.062658e+00   1.876335e-01   4.563258e-01   3.560407e-01  -3.510802e-02   8.512877e-02  -9.607034e-02  -4.792069e-01  -1.085231e+00  -4.672127e-01   1.062517e-01  -1.106267e-01   2.396346e-01  -1.570622e+05  -1.753273e+05   4.062479e+04   4.569148e+05   8.224928e+04  -9.979955e+04  -1.570627e+05  -5.665773e+05   2.061428e+05   1.480406e+06  -1.753260e+05   6.353410e+04  -4.164474e+04  -2.631337e+05   4.062471e+04  -1.570627e+05  -5.665773e+05   2.061428e+05   1.480406e+06  -1.753259e+05   6.353409e+04  -4.164474e+04  -2.631338e+05   4.062471e+04   1.102260e+00   3.460088e-02  -3.968802e-01  -6.964846e-02   1.009034e+00   3.911294e-01   6.915133e-02   7.843562e-02   1.623404e+00   9.834140e-01   6.804184e-02  -1.681286e-01  -4.873223e-02   9.920036e-01   1.164215e-01   1.747057e-01  -1.062973e-01   9.788661e-01   1.099453e+00   9.949821e-01   1.701358e+00  -1.442336e-03  -1.257401e-01   1.884338e-01   1.123049e-01   1.274936e-02   9.729691e-01  -1.335729e-02  -1.762231e-01   2.541316e-01   3.660078e-01   7.067251e-01   1.002563e-01  -8.016424e-03   2.584395e-01  -1.847293e-02  -8.044837e-02   1.322135e-01   1.168931e-01   2.373489e-01  -4.443867e-01   2.065567e-01  -1.243253e-01  -1.137647e+00   5.163734e-01   6.815170e-02  -1.878465e-01  -9.235377e-02  -8.837509e-02  -4.443867e-01   5.163734e-01  -8.837509e-02  -4.655454e-01  -1.560859e-01  -1.210103e-02   6.721020e-01   3.176060e-02   8.025273e-02   1.413407e+00   1.639261e+06   1.639261e+06   1.639261e+06   2.279484e+00   2.279484e+00   1.368487e+00   9.769415e-01   9.583010e-01  -6.772167e-01   1.078397e+00  -1.371960e+00  -4.899870e-01  -1.697028e-01  -4.547483e-01   8.295648e-01  -3.240774e-01  -4.359902e-01  -5.246503e-01  -7.312008e-01  -7.766057e-01  -1.912177e-01   6.002660e-01  -1.661298e+06   1.975175e+04   1.349782e+06  -6.971010e-01   7.109341e-01   9.285968e-02  -1.810771e-01  -4.925779e-02  -9.822346e-01  -6.937300e-01  -7.015315e-01   1.630715e-01  -6.712626e-01  -5.295159e-02   7.078258e-01   9.009249e-01   3.556899e-01   2.486344e-01   2.078091e-01   1.493814e-01  -9.666957e-01  -3.809852e-01   9.225887e-01   6.066579e-02
