     VARIABLES=
              x              y              z      nomin_den    nomin_voidr      fabric_xx      fabric_yy      fabric_zz      fabric_xy      fabric_xz      fabric_yz       sigma_xx       sigma_yy       sigma_zz       sigma_xy       sigma_xz       sigma_yz    sigmaDot_xx    sigmaDot_yy    sigmaDot_zz    sigmaDot_xy    sigmaDot_xz    sigmaDot_yz       Oldro_xx       Oldro_xy       Oldro_xz       Oldro_yx       Oldro_yy       Oldro_yz       Oldro_zx       Oldro_zy       Oldro_zz       Trues_xx       Trues_xy       Trues_xz       Trues_yx       Trues_yy       Trues_yz       Trues_zx       Trues_zy       Trues_zz           F_xX           F_xY           F_xZ           F_yX           F_yY           F_yZ           F_zX           F_zY           F_zZ           R_xX           R_xY           R_xZ           R_yX           R_yY           R_yZ           R_zX           R_zY           R_zZ           U_xX           U_yY           U_zZ           U_xY           U_xZ           U_yZ       Green_xx       Green_yy       Green_zz       Green_xy       Green_xz       Green_yz      Green_vol      Green_shr       Euler_xx       Euler_yy       Euler_zz       Euler_xy       Euler_xz       Euler_yz      Euler_vol      Euler_shr           l_xx           l_xy           l_xz           l_yx           l_yy           l_yz           l_zx           l_zy           l_zz           d_xx           d_yy           d_zz           d_xy           d_xz           d_yz           w_xy           w_xz           w_yz     norm_sigma  norm_sigmaDot     norm_Oldro     norm_Trues         norm_F         norm_U         norm_l         norm_d         norm_w              p              q        sigma_1        sigma_2        sigma_3     sigma_1_v1     sigma_1_v2     sigma_1_v3     sigma_2_v1     sigma_2_v2     sigma_2_v3     sigma_3_v1     sigma_3_v2     sigma_3_v3     sigmaDot_1     sigmaDot_2     sigmaDot_3  sigmaDot_1_v1  sigmaDot_1_v2  sigmaDot_1_v3  sigmaDot_2_v1  sigmaDot_2_v2  sigmaDot_2_v3  sigmaDot_3_v1  sigmaDot_3_v2  sigmaDot_3_v3            d_1            d_2            d_3         d_1_v1         d_1_v2         d_1_v3         d_2_v1         d_2_v2         d_2_v3         d_3_v1         d_3_v2         d_3_v3
ZONE I=2, J=2, K=2, DATAPACKING=POINT, STRANDID=5, SOLUTIONTIME=56
   5.135352e-03   5.137247e-03   4.902041e-03   1.588980e+03   6.677370e-01   3.572453e-01   3.284751e-01   3.050203e-01   6.747506e-04  -2.942740e-02   3.180906e-02  -1.123521e+03  -7.956390e+02  -7.586446e+02  -3.027112e+01   3.977040e+02  -9.201564e+01   5.411233e+05  -5.138984e+05  -1.896841e+04  -2.005489e+06  -2.267595e+06  -2.161244e+06   5.410835e+05  -8.280978e+04  -5.106029e+06  -3.928146e+06  -5.139296e+05  -2.056367e+06   5.709399e+05  -2.266170e+06  -1.899525e+04   5.411175e+05  -8.280875e+04  -5.106041e+06  -3.928146e+06  -5.139055e+05  -2.056364e+06   5.709279e+05  -2.266167e+06  -1.897225e+04   1.034685e+00   2.310787e-02   2.121551e-02   6.577758e-03   9.900269e-01  -8.908267e-03   7.215137e-03   2.729815e-03   1.022709e+00   9.999434e-01   8.153301e-03   6.834796e-03  -8.113694e-03   9.999502e-01  -5.802819e-03  -6.881768e-03   5.747035e-03   9.999598e-01   1.034524e+00   9.901818e-01   1.022864e+00   1.505500e-02   1.424854e-02  -2.857304e-03   3.533439e-02  -9.652634e-03   2.323137e-02   1.522061e-02   1.463588e-02  -2.768687e-03   1.630438e-02   3.643235e-02   3.264160e-02  -1.050883e-02   2.159669e-02   1.414706e-02   1.314434e-02  -3.499600e-03   1.457649e-02   3.440180e-02  -1.728523e-02   7.548725e-03   1.760358e-03   9.933831e-03  -2.150632e-02   1.297624e-02   4.111022e-02  -3.804665e-02   8.475033e-03  -1.728523e-02  -2.150632e-02   8.475033e-03   8.741278e-03   2.143529e-02  -1.253520e-02  -1.192553e-03  -1.967493e-02   2.551144e-02   1.675119e+03   7.194197e+06   7.194173e+06   7.194179e+06   1.760064e+00   1.760064e+00   6.555814e-02   4.710789e-02   4.559295e-02  -8.926014e+02   7.859840e+02  -1.377896e+03  -8.210977e+02  -4.788101e+02  -8.386164e-01   4.763620e-02   5.426355e-01   1.903595e-01   9.589897e-01   2.100046e-01  -5.103781e-01   2.794091e-01  -8.132925e-01  -4.398791e+06  -3.733335e+05   4.780381e+06  -5.670140e-01  -7.594212e-01  -3.190214e-01  -4.999381e-01   9.476100e-03   8.660093e-01   6.546427e-01  -6.505303e-01   3.850366e-01  -4.006046e-02  -1.196311e-02   2.170705e-02   6.544845e-01  -6.100732e-01  -4.466103e-01  -6.101339e-01  -7.750198e-01   1.645632e-01   4.465274e-01  -1.647881e-01   8.794647e-01
   5.135352e-03   5.137247e-03   1.416841e-02   1.572761e+03   6.849350e-01   3.291425e-01   3.245741e-01   3.351723e-01  -1.392981e-02  -3.836125e-04   2.243031e-04  -2.915676e+02  -4.298625e+02  -3.889173e+02   8.237498e+01   2.093275e+01  -7.844538e+00  -3.141318e+05  -4.525257e+05  -7.709446e+05  -1.569598e+06  -2.181758e+06  -2.186092e+06  -3.141256e+05  -1.593883e+06  -3.899596e+06  -1.545283e+06  -4.525539e+05   5.717267e+04  -4.639579e+05  -4.429383e+06  -7.709876e+05  -3.141047e+05  -1.593889e+06  -3.899598e+06  -1.545289e+06  -4.525231e+05   5.717314e+04  -4.639593e+05  -4.429382e+06  -7.709597e+05   1.069183e+00  -8.149429e-02  -2.497203e-01   2.736294e-01   7.331986e-01  -4.799045e-01   1.248821e-02  -4.251923e-02   1.084844e+00   9.725158e-01  -2.057420e-01  -1.090104e-01   1.778939e-01   9.586280e-01  -2.222299e-01   1.502225e-01   1.967297e-01   9.688811e-01   1.090350e+00   7.112667e-01   1.184956e+00   4.478977e-02  -1.652611e-01  -1.952510e-01   1.090905e-01  -2.269853e-01   2.347770e-01   5.648070e-02  -1.923824e-01  -1.888206e-01   3.896074e-02   4.208706e-01   3.000931e-02  -4.256301e-01  -1.086774e-01   1.875051e-01  -1.407823e-02  -3.901712e-01  -1.680994e-01   5.682018e-01   6.158310e-03  -3.030004e-03  -5.081433e-02   4.927711e-02  -2.237364e-02  -5.428097e-02   4.445693e-03   2.272356e-02  -5.544014e-02   6.158310e-03  -2.237364e-02  -5.544014e-02   2.312356e-02  -2.318432e-02  -1.577870e-02  -2.615356e-02  -2.763001e-02  -3.850227e-02   6.600192e+02   6.393027e+06   6.393049e+06   6.393046e+06   1.798267e+00   1.798267e+00   1.100644e-01   7.908522e-02   7.654869e-02  -3.701158e+02   1.933016e+02  -4.722992e+02  -3.870248e+02  -2.510235e+02  -4.279669e-01   8.811243e-01   2.011573e-01   1.092709e-02   2.275980e-01  -9.736939e-01   9.037283e-01   4.145107e-01   1.070325e-01  -5.435544e+06  -7.596174e+04   3.973903e+06   2.680863e-01   6.851555e-01   6.772678e-01   9.443655e-01  -4.785828e-02  -3.253972e-01   1.905348e-01  -7.268229e-01   6.598674e-01  -6.493724e-02  -3.510073e-02   2.838249e-02  -2.361420e-01  -2.223760e-01  -9.459312e-01  -5.177919e-01   8.525419e-01  -7.115998e-02   8.222703e-01   4.729917e-01  -3.164655e-01
   5.135352e-03   1.486083e-02   4.902041e-03   1.583154e+03   6.738740e-01   3.771732e-01   2.828584e-01   3.399684e-01   6.679269e-03  -3.997051e-04   8.282312e-03  -7.709383e+02  -6.166161e+02  -1.072857e+03  -4.474494e+01  -1.687359e+01  -1.317493e-01  -3.540800e+05  -3.040181e+05  -1.884921e+05  -2.722193e+05  -4.768452e+05  -1.572574e+05  -3.541256e+05  -1.720409e+05  -4.433836e+05  -3.724154e+05  -3.040242e+05  -2.808694e+05  -5.103445e+05  -3.372275e+04  -1.885434e+05  -3.540813e+05  -1.720385e+05  -4.433825e+05  -3.724127e+05  -3.039888e+05  -2.808693e+05  -5.103436e+05  -3.372285e+04  -1.884817e+05   1.008035e+00   1.037702e-02   9.816509e-03   1.627332e-02   1.036241e+00   7.710261e-02   4.349082e-02   6.737340e-02   1.023079e+00   9.998609e-01  -2.197551e-03  -1.653404e-02   2.276923e-03   9.999860e-01   4.783268e-03   1.652329e-02  -4.820249e-03   9.998519e-01   1.008650e+00   1.035879e+00   1.023134e+00   1.384825e-02   2.689533e-02   7.214846e-02   9.145326e-03   3.922125e-02   2.636576e-02   1.512680e-02   2.782232e-02   7.446353e-02   2.491078e-02   9.504699e-02   6.477584e-03   2.759237e-02   1.452525e-02   9.401690e-03   2.424509e-02   6.653256e-02   1.619840e-02   8.339749e-02  -2.627210e-02  -4.421398e-02  -3.555036e-02   2.595904e-02  -6.850223e-03  -7.722063e-03   2.920740e-02  -5.208204e-02  -2.433766e-02  -2.627210e-02  -6.850223e-03  -2.433766e-02  -9.127472e-03  -3.171480e-03  -2.990205e-02  -3.508651e-02  -3.237888e-02   2.217999e-02   1.459517e+03   9.790892e+05   9.791532e+05   9.791118e+05   1.774673e+00   1.774673e+00   9.406003e-02   5.748455e-02   7.445008e-02  -8.201373e+02   4.111394e+02  -1.073582e+03  -7.838008e+02  -6.030292e+02   4.907739e-02   1.573061e-03   9.987937e-01  -9.605088e-01  -2.741429e-01   4.762796e-02   2.738872e-01  -9.616877e-01  -1.194328e-02  -9.436580e+05  -2.330991e+05   3.301669e+05   7.296648e-01   4.518481e-01   5.132472e-01  -1.036289e-01   8.149750e-01  -5.701551e-01  -6.759071e-01   3.628348e-01   6.414831e-01  -4.955872e-02  -2.416438e-02   1.626313e-02   3.309003e-01   5.876658e-01   7.383454e-01   9.348058e-01  -9.716812e-02  -3.416086e-01   1.290081e-01  -8.032479e-01   5.815064e-01
   5.135352e-03   1.486083e-02   1.416841e-02   1.577833e+03   6.795190e-01   3.209648e-01   3.261414e-01   3.528939e-01   5.645934e-02  -6.809229e-03   4.055839e-02  -1.107343e+03  -8.198584e+02  -1.663094e+03  -7.688725e+01  -2.404569e+02  -1.019359e+02  -5.616260e+05  -7.061707e+05   1.464041e+05  -9.874875e+04  -2.113894e+05  -1.146706e+04  -5.616026e+05   2.898562e+05  -1.338007e+05  -4.873903e+05  -7.061524e+05  -9.091781e+04  -2.889644e+05   6.814338e+04   1.463618e+05  -5.616073e+05   2.898558e+05  -1.338017e+05  -4.873905e+05  -7.061558e+05  -9.091824e+04  -2.889654e+05   6.814295e+04   1.463548e+05   9.511624e-01   6.111981e-02  -1.608473e-01   1.185791e-01   9.667213e-01   1.076403e-01   3.501472e-01  -2.487645e-03   1.154212e+00   9.711979e-01  -1.257001e-02  -2.379427e-01   2.688452e-02   9.980116e-01   5.701024e-02   2.367529e-01  -6.176519e-02   9.696046e-01   1.009853e+00   9.641844e-01   1.163539e+00   8.476031e-02   1.199424e-01   3.815797e-02   2.068697e-02  -3.085402e-02   1.848320e-01   8.594840e-02   1.319581e-01   4.567797e-02   5.822166e-02   2.297050e-01  -5.605773e-02  -4.280925e-02   1.456260e-01   8.148910e-02   4.712895e-02   5.270218e-02   1.558635e-02   1.802434e-01   1.252913e-02  -4.451798e-02   5.115556e-03   3.453086e-03   4.326998e-03   5.223914e-02   3.272067e-03  -8.866305e-03  -1.263621e-02   1.252913e-02   4.326998e-03  -1.263621e-02  -2.053245e-02   4.193811e-03   2.168642e-02  -2.398553e-02   9.217444e-04   3.055272e-02   2.193836e+03   1.127570e+06   1.127541e+06   1.127545e+06   1.830117e+00   1.830117e+00   7.192750e-02   4.641461e-02   5.494769e-02  -1.196765e+03   8.728630e+02  -1.764607e+03  -1.022982e+03  -8.027070e+02   3.464012e-01   1.230636e-01   9.299793e-01   9.268174e-01   1.083036e-01  -3.595552e-01   1.449683e-01  -9.864713e-01   7.654095e-02  -1.142042e+06  -2.916659e+05   3.123158e+05  -6.710773e-01  -7.329105e-01  -1.117918e-01  -6.021289e-01   6.267673e-01  -4.945740e-01  -4.325459e-01   2.645844e-01   8.619160e-01  -3.291132e-02   4.749019e-03   3.238222e-02   3.402705e-01   6.062339e-01  -7.188160e-01   6.669846e-01   3.832401e-01   6.389512e-01  -6.628330e-01   6.968554e-01   2.739434e-01
   1.485945e-02   5.137247e-03   4.902041e-03   1.720231e+03   5.404912e-01   3.627554e-01   3.626187e-01   2.746259e-01  -4.604903e-02  -2.098291e-02   9.210637e-04  -8.709934e+02  -7.337963e+02  -4.117009e+02   7.453861e+01  -9.336683e+01   4.168735e+01   1.076331e+05   3.045592e+05  -5.532356e+05  -2.982849e+05  -3.584320e+06   5.958850e+06   1.075801e+05   1.104385e+06  -4.711728e+06  -1.700957e+06   3.045476e+05  -2.029549e+05  -2.456917e+06   1.212067e+07  -5.532242e+05   1.076008e+05   1.104384e+06  -4.711726e+06  -1.700958e+06   3.045650e+05  -2.029559e+05  -2.456915e+06   1.212067e+07  -5.532145e+05   1.171120e+00  -6.407293e-01   3.749820e-01  -2.339263e-01   1.937643e+00  -4.563053e-01   4.602228e-02  -8.036043e-02   9.252828e-01   9.855589e-01  -1.197215e-01   1.197512e-01   1.333873e-01   9.845452e-01  -1.134838e-01  -1.043141e-01   1.278183e-01   9.862966e-01   1.118204e+00   1.974135e+00   1.009291e+00  -3.646367e-01   2.121815e-01  -3.758785e-01   2.141805e-01   1.585726e+00   1.024871e-01  -6.036674e-01   2.942371e-01  -5.993874e-01   6.341313e-01   1.410685e+00   6.916002e-02   2.991470e-01  -1.722323e-01  -1.642309e-01   1.135743e-01  -5.082492e-02   6.535825e-02   3.615052e-01  -2.952007e-02   1.295782e-03  -7.064853e-03  -4.038866e-03  -9.159462e-03  -1.392043e-02   2.782346e-03   1.691497e-02   1.494047e-02  -2.952007e-02  -9.159462e-03   1.494047e-02  -1.371542e-03  -2.141254e-03   1.497271e-03   2.667324e-03  -4.923599e-03  -1.541770e-02   1.224225e+03   1.340566e+07   1.340567e+07   1.340566e+07   2.608599e+00   2.608599e+00   4.164238e-02   3.458271e-02   2.319750e-02  -6.721635e+02   4.618545e+02  -9.250863e+02  -6.977736e+02  -3.936306e+02   8.937366e-01  -4.089567e-01   1.843618e-01   4.168712e-01   9.089539e-01  -4.612142e-03   1.656902e-01  -8.097716e-02  -9.828476e-01  -1.228116e+07  -5.470564e+05   1.268717e+07   4.866934e-02  -6.894313e-01   7.227142e-01  -9.726570e-01  -1.972246e-01  -1.226408e-01   2.270894e-01  -6.969842e-01  -6.801789e-01  -2.970519e-02  -9.177695e-03   1.514383e-02   9.969528e-01   6.322219e-02   4.569466e-02  -6.007910e-02   9.959316e-01  -6.716200e-02  -4.975488e-02   6.421205e-02   9.966952e-01
   1.485945e-02   5.137247e-03   1.416841e-02   1.479274e+03   7.914188e-01   3.431087e-01   3.603844e-01   2.965069e-01  -6.370816e-03  -3.664742e-02   6.026253e-03  -3.306491e+02  -3.202156e+02  -1.644862e+02  -5.725061e+01   1.244290e+01   7.656887e+00  -2.545594e+05   7.554360e+04   1.422828e+05  -7.200139e+05   1.628371e+06   2.335079e+06  -2.545721e+05   4.627923e+05   3.923065e+06  -1.902789e+06   7.558251e+04  -8.993798e+04  -6.662908e+05   4.760122e+06   1.422853e+05  -2.545877e+05   4.627896e+05   3.923066e+06  -1.902792e+06   7.556742e+04  -8.993753e+04  -6.662903e+05   4.760122e+06   1.422776e+05   1.236955e+00  -3.562958e-01  -4.963271e-01  -1.309894e-01   1.104375e+00   4.098035e-01  -6.361585e-01   1.913240e-02   1.227992e+00   9.844995e-01  -1.598390e-01   7.219575e-02   1.412353e-01   9.665705e-01   2.139955e-01  -1.039871e-01  -2.004819e-01   9.741631e-01   1.265433e+00   1.120570e+00   1.248127e+00  -1.967859e-01  -5.584504e-01   2.292463e-01   4.759563e-01   1.734783e-01   4.611215e-01  -2.987772e-01  -7.244056e-01   3.264552e-01   3.701854e-01   9.997864e-01  -1.303895e-01   4.524825e-02  -7.049153e-02  -1.629252e-01  -4.106344e-01   2.495169e-02  -5.187759e-02   5.212291e-01  -1.493691e-02  -7.353333e-03   8.128981e-02   5.193654e-02   5.368322e-02   9.282911e-02   9.994023e-03  -4.409896e-03   8.386412e-03  -1.493691e-02   5.368322e-02   8.386412e-03   2.229160e-02   4.564191e-02   4.420961e-02  -2.964494e-02   3.564789e-02   4.861950e-02   4.958975e+02   6.513569e+06   6.513585e+06   6.513586e+06   2.284975e+00   2.284975e+00   1.458472e-01   1.106549e-01   9.501000e-02  -2.717836e+02   1.916314e+02  -3.847165e+02  -2.670423e+02  -1.635921e+02   7.379952e-01   6.722955e-01  -5.815466e-02   6.713383e-01  -7.401968e-01  -3.759876e-02   6.832336e-02   1.129375e-02   9.975993e-01  -4.834214e+06  -6.557444e+05   5.453225e+06  -2.031921e-01  -7.210147e-01   6.624581e-01  -9.299471e-01  -6.964397e-02  -3.610375e-01   3.064496e-01  -6.894109e-01  -6.563545e-01  -5.150816e-02   7.076421e-04   9.793324e-02   7.462831e-01   1.172280e-01  -6.552245e-01   5.521441e-01  -6.587901e-01   5.110113e-01   3.717506e-01   7.431374e-01   5.563706e-01
   1.485945e-02   1.486083e-02   4.902041e-03   1.591777e+03   6.648061e-01   3.654307e-01   3.413708e-01   2.931985e-01   2.239750e-02  -3.277167e-02   1.228716e-02  -5.578430e+02  -7.000172e+02  -3.854872e+02   5.881415e+01   4.370110e+01  -2.491573e+01  -3.423042e+05  -1.418624e+05  -2.408284e+05   6.837015e+04  -1.374293e+04   1.013959e+05  -3.423103e+05   1.066371e+05  -1.330710e+05   3.012925e+04  -1.418556e+05   1.164420e+05   1.055440e+05   8.637638e+04  -2.408033e+05  -3.423265e+05   1.066388e+05  -1.330697e+05   3.013095e+04  -1.418760e+05   1.164413e+05   1.055453e+05   8.637565e+04  -2.408145e+05   9.107437e-01   2.968467e-02  -6.708464e-02  -5.380820e-02   8.691291e-01   1.270199e-01   1.904004e-01  -1.343327e-01   1.010407e+00   9.901175e-01   5.944965e-02  -1.270162e-01  -4.137367e-02   9.892180e-01   1.404850e-01   1.339985e-01  -1.338416e-01   9.819017e-01   9.294829e-01   8.795021e-01   1.018486e+00  -2.456813e-02   6.371607e-02  -1.357232e-02  -6.569912e-02  -1.128441e-01   2.077863e-02  -2.265408e-02   6.222518e-02  -1.366274e-02  -5.258819e-02   1.105413e-01  -1.068563e-01  -1.466770e-01   2.954990e-02  -2.496173e-02   5.739449e-02   3.167978e-03  -7.466115e-02   1.289374e-01  -7.975408e-03  -2.394422e-03  -2.945643e-02   2.810394e-02   6.933719e-03   6.920507e-03  -1.314856e-02   1.461274e-02   3.009463e-02  -7.975408e-03   6.933719e-03   3.009463e-02   1.285476e-02  -2.130249e-02   1.076662e-02  -1.524918e-02  -8.153933e-03  -3.846116e-03   9.807107e+02   5.073772e+05   5.073774e+05   5.073995e+05   1.638435e+00   1.638435e+00   5.581153e-02   4.987277e-02   2.505262e-02  -5.477825e+02   3.039995e+02  -7.254052e+02  -5.434866e+02  -3.744557e+02   3.539637e-01  -9.282154e-01  -1.145681e-01   9.081852e-01   3.703896e-01  -1.949645e-01  -2.234039e-01   3.503872e-02  -9.740960e-01  -4.104766e+05  -2.477090e+05  -6.680932e+04   8.254185e-01   8.679932e-02  -5.578084e-01   4.780943e-01  -6.329096e-01   6.089756e-01   3.001836e-01   7.693448e-01   5.639135e-01  -2.558923e-02   1.429034e-02   4.035184e-02  -8.028646e-01   4.476679e-01  -3.937027e-01  -4.726541e-01  -8.804593e-01  -3.727710e-02   3.633270e-01  -1.561568e-01  -9.184817e-01
   1.485945e-02   1.486083e-02   1.416841e-02   1.503587e+03   7.624519e-01   3.451993e-01   3.081105e-01   3.308171e-01   1.076048e-02   1.026110e-02   4.178052e-02  -7.697068e+02  -2.248920e+02  -3.171369e+02  -4.303102e+01  -2.004631e+02  -8.255229e+01  -5.556586e+04   2.110414e+04  -9.966240e+04  -1.291583e+06   4.670064e+05   1.806419e+05  -5.560711e+04   2.792044e+04   7.615170e+05  -2.611053e+06   2.107033e+04  -1.114550e+04   1.725381e+05   3.724103e+05  -9.966850e+04  -5.550296e+04   2.792712e+04   7.615436e+05  -2.611048e+06   2.110076e+04  -1.113464e+04   1.725658e+05   3.724218e+05  -9.962559e+04   9.151695e-01   2.045077e-01   4.244100e-01   2.323521e-01   5.760404e-01  -2.769834e-01   2.448861e-02  -5.683224e-02   8.006244e-01   9.690834e-01   4.840288e-03   2.466858e-01   4.357456e-02   9.807348e-01  -1.904220e-01  -2.428551e-01   1.952841e-01   9.502029e-01   8.910530e-01   5.548343e-01   9.181953e-01   2.370877e-01   2.047835e-01  -1.132438e-01  -5.393880e-02  -3.115621e-01  -5.107845e-02   1.598058e-01   1.718278e-01  -5.912991e-02  -1.388598e-01   3.284928e-01  -4.290956e-01  -1.702482e+00  -1.248217e+00   8.825459e-01   8.456624e-01  -1.329652e+00  -1.126598e+00   2.214642e+00  -4.027665e-02   3.180242e-02   4.491182e-02   2.667576e-02  -6.184431e-02  -5.021044e-02   2.269979e-02   3.543001e-02  -3.319268e-02  -4.027665e-02  -6.184431e-02  -3.319268e-02   2.923909e-02   3.380581e-02  -7.390214e-03   2.563330e-03   1.110602e-02  -4.282023e-02   9.172972e+02   2.753251e+06   2.753242e+06   2.753244e+06   1.472019e+00   1.472019e+00   1.207493e-01   1.032154e-01   6.266556e-02  -4.372452e+02   6.375649e+02  -8.553138e+02  -2.946209e+02  -1.618009e+02   9.241244e-01   1.032240e-01   3.678843e-01   3.431704e-01  -6.475929e-01  -6.803364e-01  -1.680122e-01  -7.549624e-01   6.338798e-01  -2.685772e+06  -5.024914e+04   2.601897e+06  -7.016921e-01  -6.971089e-01   1.471984e-01   1.426434e-01   6.496442e-02   9.876399e-01   6.980552e-01  -7.140160e-01  -5.385297e-02  -9.424985e-02  -4.206413e-02   1.000338e-03  -6.221441e-01   6.580740e-01   4.241171e-01   3.199760e-01   7.081443e-01  -6.294021e-01  -7.145293e-01  -2.558715e-01  -6.511357e-01
