     VARIABLES=
              x              y              z      nomin_den    nomin_voidr      fabric_xx      fabric_yy      fabric_zz      fabric_xy      fabric_xz      fabric_yz       sigma_xx       sigma_yy       sigma_zz       sigma_xy       sigma_xz       sigma_yz    sigmaDot_xx    sigmaDot_yy    sigmaDot_zz    sigmaDot_xy    sigmaDot_xz    sigmaDot_yz       Oldro_xx       Oldro_xy       Oldro_xz       Oldro_yx       Oldro_yy       Oldro_yz       Oldro_zx       Oldro_zy       Oldro_zz       Trues_xx       Trues_xy       Trues_xz       Trues_yx       Trues_yy       Trues_yz       Trues_zx       Trues_zy       Trues_zz           F_xX           F_xY           F_xZ           F_yX           F_yY           F_yZ           F_zX           F_zY           F_zZ           R_xX           R_xY           R_xZ           R_yX           R_yY           R_yZ           R_zX           R_zY           R_zZ           U_xX           U_yY           U_zZ           U_xY           U_xZ           U_yZ       Green_xx       Green_yy       Green_zz       Green_xy       Green_xz       Green_yz      Green_vol      Green_shr       Euler_xx       Euler_yy       Euler_zz       Euler_xy       Euler_xz       Euler_yz      Euler_vol      Euler_shr           l_xx           l_xy           l_xz           l_yx           l_yy           l_yz           l_zx           l_zy           l_zz           d_xx           d_yy           d_zz           d_xy           d_xz           d_yz           w_xy           w_xz           w_yz     norm_sigma  norm_sigmaDot     norm_Oldro     norm_Trues         norm_F         norm_U         norm_l         norm_d         norm_w              p              q        sigma_1        sigma_2        sigma_3     sigma_1_v1     sigma_1_v2     sigma_1_v3     sigma_2_v1     sigma_2_v2     sigma_2_v3     sigma_3_v1     sigma_3_v2     sigma_3_v3     sigmaDot_1     sigmaDot_2     sigmaDot_3  sigmaDot_1_v1  sigmaDot_1_v2  sigmaDot_1_v3  sigmaDot_2_v1  sigmaDot_2_v2  sigmaDot_2_v3  sigmaDot_3_v1  sigmaDot_3_v2  sigmaDot_3_v3            d_1            d_2            d_3         d_1_v1         d_1_v2         d_1_v3         d_2_v1         d_2_v2         d_2_v3         d_3_v1         d_3_v2         d_3_v3
ZONE I=2, J=2, K=2, DATAPACKING=POINT, STRANDID=5, SOLUTIONTIME=55
   5.133072e-03   5.134912e-03   4.899993e-03   1.586626e+03   6.702108e-01   3.855306e-01   3.176879e-01   2.883070e-01  -2.851842e-03  -2.961741e-02   1.675511e-02  -1.946234e+03  -1.879413e+03  -1.305783e+03   4.841108e+01   4.404847e+02  -2.437076e+02  -5.633340e+05  -3.652328e+05  -1.484329e+05  -5.674199e+04   8.291564e+04  -2.226328e+04  -5.633521e+05   3.778626e+03   9.737526e+04  -1.173470e+05  -3.651667e+05   1.353312e+05   6.839025e+04  -1.799876e+05  -1.484312e+05  -5.633809e+05   3.779359e+03   9.738180e+04  -1.173463e+05  -3.651945e+05   1.353276e+05   6.839671e+04  -1.799911e+05  -1.484504e+05   1.033204e+00   2.260115e-02   2.241326e-02   6.529179e-03   9.889410e-01  -5.962609e-03   6.852587e-03   4.000907e-03   1.021936e+00   9.999397e-01   7.934106e-03   7.590312e-03  -7.896421e-03   9.999564e-01  -4.982090e-03  -7.629509e-03   4.921853e-03   9.999588e-01   1.033038e+00   9.890969e-01   1.022094e+00   1.476017e-02   1.466212e-02  -7.547004e-04   3.380021e-02  -1.073445e-02   2.244565e-02   1.491800e-02   1.506072e-02  -6.507155e-04   1.517047e-02   3.624593e-02   3.130713e-02  -1.161925e-02   2.087141e-02   1.390813e-02   1.352454e-02  -1.425295e-03   1.351976e-02   3.424586e-02  -6.962855e-03   7.438115e-03  -1.102251e-02  -3.694766e-02   2.227217e-02  -4.352533e-02  -1.253255e-02  -1.609521e-02  -5.520034e-04  -6.962855e-03   2.227217e-02  -5.520034e-04  -1.475477e-02  -1.177753e-02  -2.981027e-02   2.219289e-02   7.550195e-04  -1.371506e-02   3.088147e+03   7.425778e+05   7.425618e+05   7.426026e+05   1.758130e+00   1.758130e+00   6.631260e-02   5.509053e-02   3.691063e-02  -1.710477e+03   1.062308e+03  -2.238565e+03  -1.855099e+03  -1.037767e+03  -7.756467e-01   4.185549e-01   4.724236e-01   4.770860e-01   8.788442e-01   4.668676e-03   4.132326e-01  -2.290079e-01   8.813593e-01  -6.183517e+05  -4.377266e+05  -2.092152e+04  -8.956927e-01  -4.429444e-01  -3.917600e-02  -3.891343e-01   7.381386e-01   5.511133e-01   2.151953e-01  -5.088729e-01   8.335102e-01  -3.352974e-02   4.844508e-03   4.344254e-02   5.675876e-01   4.996502e-01   6.543654e-01   8.145319e-01  -2.250111e-01  -5.347034e-01   1.199252e-01  -8.364925e-01   5.346945e-01
   5.133072e-03   5.134912e-03   1.417106e-02   1.570432e+03   6.874343e-01   2.680061e-01   3.494332e-01   3.825607e-01  -5.152407e-03  -1.878014e-02  -2.880614e-02  -6.222701e+02  -8.953219e+02  -7.529667e+02   1.695546e+02   8.164108e+01  -3.915266e-01  -2.633308e+05  -1.963419e+05   2.035457e+05  -3.687372e+04  -1.849773e+05   1.092124e+05  -2.632779e+05  -1.940576e+05  -2.991695e+05   1.199799e+05  -1.962534e+05   1.565387e+05  -7.066503e+04   6.180325e+04   2.035039e+05  -2.632938e+05  -1.940533e+05  -2.991674e+05   1.199842e+05  -1.962762e+05   1.565387e+05  -7.066296e+04   6.180325e+04   2.034847e+05   1.043497e+00  -7.018762e-02  -2.210120e-01   2.178877e-01   7.296706e-01  -3.869826e-01  -7.142831e-03  -8.511716e-02   1.161657e+00   9.807870e-01  -1.702673e-01  -9.521488e-02   1.549584e-01   9.764708e-01  -1.499754e-01   1.185105e-01   1.323395e-01   9.840943e-01   1.056366e+00   7.131884e-01   1.222261e+00   3.414222e-02  -1.390635e-01  -1.865130e-01   6.820637e-02  -2.277048e-01   2.740239e-01   4.317683e-02  -1.616209e-01  -1.828672e-01   3.817516e-02   4.083059e-01   2.074579e-02  -4.786146e-01  -4.779771e-03   1.467719e-01  -3.569485e-02  -3.422392e-01  -1.542162e-01   5.404102e-01   1.031527e-02  -1.641260e-01   9.564054e-02  -2.376832e-02   4.497046e-02  -7.251305e-02  -1.932891e-02   8.907099e-03  -2.985835e-02   1.031527e-02   4.497046e-02  -2.985835e-02  -9.394716e-02   3.815581e-02  -3.180298e-02  -7.017885e-02   5.748472e-02  -4.071008e-02   1.351521e+03   5.694170e+05   5.693136e+05   5.693200e+05   1.796956e+00   1.796956e+00   2.130276e-01   1.600219e-01   1.406192e-01  -7.568529e+02   4.024435e+02  -9.822042e+02  -7.702706e+02  -5.180839e+02   4.499793e-01  -8.785286e-01  -1.603312e-01  -2.012155e-01  -2.746578e-01   9.402529e-01   8.700752e-01   3.908332e-01   3.003639e-01  -3.698868e+05  -1.052320e+05   2.189917e+05   7.835810e-01  -5.999722e-01   1.613510e-01   6.102728e-01   7.919673e-01  -1.884003e-02   1.164812e-01  -1.132308e-01  -9.867172e-01  -7.071296e-02  -4.133116e-02   1.374715e-01   7.792964e-01   5.506191e-01  -2.991917e-01  -6.368575e-02  -4.053815e-01  -9.119265e-01   6.234110e-01  -7.297153e-01   2.808457e-01
   5.133072e-03   1.486324e-02   4.899993e-03   1.580809e+03   6.763569e-01   3.239355e-01   3.066425e-01   3.694220e-01  -2.036430e-02  -3.205342e-02  -5.447650e-03  -1.537446e+03  -1.680799e+03  -1.939289e+03   2.140340e+02  -1.485395e+02   1.435796e+02  -5.205830e+06   9.354817e+06   8.694609e+05   4.389884e+07  -5.918804e+06  -1.027377e+07  -5.205806e+06   3.018860e+06  -1.653297e+07   8.477880e+07   9.354758e+06  -1.458226e+06   4.695453e+06  -1.908936e+07   8.694027e+05  -5.205760e+06   3.018853e+06  -1.653296e+07   8.477879e+07   9.354808e+06  -1.458230e+06   4.695457e+06  -1.908936e+07   8.694601e+05   1.006868e+00   6.420647e-02   6.118424e-03   1.400667e-02   1.052282e+00   7.311086e-02   4.145553e-02   6.796065e-02   1.024007e+00   9.995188e-01   2.505916e-02  -1.828170e-02  -2.500215e-02   9.996818e-01   3.340339e-03   1.835959e-02  -2.881650e-03   9.998273e-01   1.006794e+00   1.053360e+00   1.023963e+00   3.911400e-02   2.308791e-02   7.029009e-02   7.848522e-03   5.801899e-02   2.698669e-02   4.110186e-02   2.481762e-02   7.345913e-02   3.095140e-02   1.054677e-01   5.057356e-03   3.995587e-02   1.635512e-02   3.389949e-02   1.984760e-02   6.240522e-02   2.045612e-02   8.759455e-02   5.583988e-03  -1.318375e-02   3.886248e-03   3.677611e-03  -1.724056e-02  -1.557190e-03   2.391767e-02  -1.475030e-02  -1.791957e-02   5.583988e-03  -1.724056e-02  -1.791957e-02  -4.753069e-03   1.390196e-02  -8.153744e-03  -8.430680e-03  -1.001571e-02   6.596554e-03   3.021039e+03   8.929640e+07   8.929637e+07   8.929637e+07   1.784855e+00   1.784855e+00   4.054650e-02   3.484549e-02   2.073188e-02  -1.719178e+03   6.231644e+02  -2.095620e+03  -1.683153e+03  -1.378762e+03  -3.904765e-01   4.712657e-01  -7.908456e-01   4.027870e-01  -6.850038e-01  -6.070688e-01  -8.278229e-01  -5.555884e-01   7.765821e-02  -8.612023e+07   2.596442e+06   8.854224e+07  -7.158691e-01   6.729196e-01   1.863081e-01  -2.220863e-01   3.353033e-02  -9.744503e-01   6.619737e-01   7.389553e-01  -1.254429e-01  -2.764457e-02  -1.593443e-02   1.400286e-02  -2.667234e-01   5.160615e-01   8.139651e-01  -4.269052e-01  -8.204494e-01   3.802825e-01   8.640663e-01  -2.460557e-01   4.391424e-01
   5.133072e-03   1.486324e-02   1.417106e-02   1.575496e+03   6.820102e-01   2.994199e-01   3.105830e-01   3.899971e-01   3.684175e-02   8.024274e-03   1.779963e-02  -2.433270e+03  -1.676605e+03  -3.592310e+03  -1.742266e+02  -4.273346e+02  -7.478586e+01  -9.906474e+05   2.928346e+04  -2.840906e+05   1.133611e+05  -1.711690e+04  -8.545508e+04  -9.905455e+05  -1.665439e+05   1.038005e+05   3.932376e+05   2.929894e+04  -1.281719e+05  -1.378683e+05  -4.255415e+04  -2.841273e+05  -9.905863e+05  -1.665469e+05   1.037933e+05   3.932347e+05   2.927084e+04  -1.281730e+05  -1.378755e+05  -4.255549e+04  -2.841875e+05   9.514323e-01   6.282467e-02  -1.628298e-01   1.235744e-01   9.667840e-01   1.002216e-01   3.618840e-01  -3.085197e-03   1.156917e+00   9.697660e-01  -1.470187e-02  -2.435936e-01   2.867765e-02   9.981330e-01   5.392665e-02   2.423459e-01  -5.928192e-02   9.683770e-01   1.013912e+00   9.642383e-01   1.165400e+00   8.790264e-02   1.253414e-01   3.384411e-02   2.572701e-02  -3.068608e-02   1.875070e-01   8.906333e-02   1.380665e-01   4.154678e-02   6.084930e-02   2.353664e-01  -5.753893e-02  -4.341734e-02   1.491644e-01   8.588912e-02   4.987272e-02   4.921164e-02   1.606938e-02   1.848300e-01   2.163808e-02  -3.231326e-02   9.137116e-03   8.965394e-03   2.301313e-03   3.102860e-02   2.018913e-02  -1.572770e-02  -7.181167e-03   2.163808e-02   2.301313e-03  -7.181167e-03  -1.167394e-02   1.466312e-02   7.650447e-03  -2.063933e-02  -5.526008e-03   2.337815e-02   4.698263e+03   1.137271e+06   1.137172e+06   1.137222e+06   1.834420e+00   1.834420e+00   5.788626e-02   3.667024e-02   4.478965e-02  -2.567395e+03   1.857674e+03  -3.741167e+03  -2.322580e+03  -1.638438e+03   3.176488e-01   6.326479e-02   9.460956e-01   9.228611e-01   2.085329e-01  -3.237923e-01   2.177767e-01  -9.759670e-01  -7.855594e-03  -1.140698e+06  -2.839607e+05   1.792042e+05   9.405703e-01  -3.111862e-01   1.359804e-01  -6.845359e-02   2.184656e-01   9.734407e-01  -3.326283e-01  -9.248978e-01   1.841805e-01  -1.976887e-02   6.288910e-03   3.023818e-02   4.102217e-01   4.847593e-01  -7.724808e-01  -8.784821e-02  -8.220887e-01  -5.625414e-01   9.077449e-01  -2.986278e-01   2.946534e-01
   1.486191e-02   5.134912e-03   4.899993e-03   1.717683e+03   5.427763e-01   3.727247e-01   3.593697e-01   2.679056e-01  -5.935102e-02   6.077974e-03  -8.045652e-04  -2.201904e+03  -2.198354e+03  -1.185920e+03   1.607610e+02  -1.760589e+02   2.847171e+02  -1.494914e+05  -2.757149e+05  -7.299281e+04   1.183402e+03   3.773578e+04   3.626400e+05  -1.495003e+05   4.333626e+04   4.085683e+04  -4.083891e+04  -2.756741e+05   4.015862e+05   3.464928e+04   3.237066e+05  -7.298740e+04  -1.495250e+05   4.333809e+04   4.085487e+04  -4.083711e+04  -2.756988e+05   4.015894e+05   3.464728e+04   3.237098e+05  -7.300074e+04   1.173295e+00  -6.334022e-01   3.587639e-01  -2.223311e-01   1.889355e+00  -4.196283e-01   4.682050e-02  -8.394534e-02   9.263605e-01   9.856321e-01  -1.239923e-01   1.146969e-01   1.359170e-01   9.853778e-01  -1.027481e-01  -1.002798e-01   1.168611e-01   9.880726e-01   1.121523e+00   1.930456e+00   9.995765e-01  -3.590881e-01   2.036794e-01  -3.497210e-01   2.141217e-01   1.488954e+00   8.147160e-02  -5.835800e-01   2.788024e-01  -5.489162e-01   5.948491e-01   1.328444e+00   7.340463e-02   2.910968e-01  -1.654170e-01  -1.644680e-01   1.108666e-01  -5.081218e-02   6.636148e-02   3.541401e-01  -9.525140e-04   5.834129e-03  -7.916412e-03   2.513031e-02   8.209823e-03  -2.255413e-02   1.376430e-02   1.565013e-02   3.996013e-03  -9.525140e-04   8.209823e-03   3.996013e-03   1.548222e-02   2.923943e-03  -3.451997e-03  -9.648091e-03  -1.084036e-02  -1.910213e-02   3.370960e+03   6.133150e+05   6.133081e+05   6.133304e+05   2.563024e+00   2.563024e+00   4.189973e-02   2.458874e-02   3.392611e-02  -1.862059e+03   1.202064e+03  -2.445859e+03  -2.045592e+03  -1.094727e+03   6.525445e-01  -7.138724e-01   2.541099e-01   7.478825e-01   6.606966e-01  -6.443493e-02   1.218912e-01  -2.320910e-01  -9.650266e-01  -5.212435e+05  -1.418445e+05   1.648888e+05  -1.423716e-01  -7.971987e-01   5.866895e-01   9.897418e-01  -1.217801e-01   7.470426e-02   1.189296e-02   5.913069e-01   8.063589e-01  -1.362212e-02   5.033325e-03   1.984212e-02  -7.726790e-01   5.863916e-01   2.431297e-01  -2.346499e-01   9.203855e-02  -9.677129e-01  -5.898360e-01  -8.047818e-01   6.648050e-02
   1.486191e-02   5.134912e-03   1.417106e-02   1.477083e+03   7.940760e-01   3.546838e-01   3.796083e-01   2.657079e-01  -4.718191e-03  -2.624249e-02  -1.083853e-02  -1.047548e+03  -9.840369e+02  -4.252676e+02  -3.060346e+01  -4.383353e+01   6.199562e+01   2.518033e+05  -1.199755e+06  -2.438865e+05   9.067459e+04  -5.630813e+05   1.968777e+05   2.518110e+05  -2.277833e+05  -9.772270e+05   4.092201e+05  -1.199770e+06   1.737745e+05  -1.490272e+05   2.199746e+05  -2.439052e+05   2.518357e+05  -2.277826e+05  -9.772260e+05   4.092209e+05  -1.199747e+06   1.737731e+05  -1.490262e+05   2.199732e+05  -2.438951e+05   1.250710e+00  -3.537131e-01  -5.142238e-01  -1.493797e-01   1.100676e+00   4.128466e-01  -6.541869e-01   6.378898e-03   1.281345e+00   9.858558e-01  -1.520171e-01   7.056319e-02   1.337767e-01   9.673933e-01   2.150673e-01  -1.009563e-01  -2.025857e-01   9.740466e-01   1.279081e+00   1.117265e+00   1.300594e+00  -2.021094e-01  -5.810811e-01   2.179737e-01   5.072754e-01   1.683207e-01   5.383567e-01  -3.054921e-01  -7.715275e-01   3.222358e-01   4.046509e-01   1.054860e+00  -1.222880e-01   3.902078e-02  -2.715154e-02  -1.725162e-01  -3.919386e-01   1.784179e-02  -3.680626e-02   5.036812e-01   8.562665e-04   1.673443e-02   5.523214e-02   2.933410e-02  -8.118136e-03   5.980914e-03  -6.432484e-02  -6.624843e-03  -1.631921e-02   8.562665e-04  -8.118136e-03  -1.631921e-02   2.303427e-02  -4.546348e-03  -3.219646e-04  -6.299835e-03   5.977849e-02   6.302879e-03   1.503311e+03   1.684428e+06   1.684477e+06   1.684461e+06   2.329787e+00   2.329787e+00   9.349556e-02   3.789004e-02   8.547377e-02  -8.189507e+02   6.095706e+02  -1.060732e+03  -9.809298e+02  -4.151906e+02  -9.338207e-01  -3.566336e-01  -2.813190e-02   3.503245e-01  -9.275580e-01   1.300346e-01   7.246869e-02  -1.115737e-01  -9.911103e-01  -1.363468e+06  -2.010184e+05   3.726480e+05   2.585407e-01  -9.407897e-01   2.192521e-01   9.144441e-02   2.497852e-01   9.639737e-01  -9.616624e-01  -2.291770e-01   1.506096e-01  -2.772637e-02  -1.607001e-02   2.021529e-02   6.325127e-01  -7.392313e-01   2.312247e-01  -7.021634e-02   2.425732e-01   9.675887e-01   7.713608e-01   6.282479e-01  -1.015245e-01
   1.486191e-02   1.486324e-02   4.899993e-03   1.589419e+03   6.672756e-01   3.713083e-01   3.369548e-01   2.917369e-01   1.754317e-02  -3.112164e-02   1.519340e-02  -1.281545e+03  -1.682136e+03  -1.039966e+03   1.487174e+02  -2.351845e+01  -2.370342e+01  -1.911145e+05   2.047302e+05  -4.351955e+05   3.222537e+05   1.368464e+06   2.077180e+06  -1.911465e+05   1.641556e+06   2.991096e+06  -9.971297e+05   2.047525e+05   2.369282e+05  -2.541380e+05   3.917446e+06  -4.352383e+05  -1.911084e+05   1.641552e+06   2.991097e+06  -9.971340e+05   2.048026e+05   2.369288e+05  -2.541372e+05   3.917447e+06  -4.352074e+05   9.142437e-01   3.677193e-02  -7.156150e-02  -5.368321e-02   8.809587e-01   1.246866e-01   1.883235e-01  -1.436194e-01   1.016514e+00   9.898952e-01   6.240626e-02  -1.273303e-01  -4.392001e-02   9.887269e-01   1.431438e-01   1.348279e-01  -1.361050e-01   9.814769e-01   9.327545e-01   8.928697e-01   1.024645e+00  -2.165527e-02   6.073981e-02  -1.953754e-02  -6.290542e-02  -1.009665e-01   2.698387e-02  -2.036054e-02   5.965757e-02  -1.938942e-02  -4.562936e-02   1.074939e-01  -9.994711e-02  -1.299668e-01   3.652489e-02  -1.869354e-02   5.167990e-02  -4.101831e-03  -6.446301e-02   1.206167e-01  -1.547955e-02  -1.970767e-02   3.802286e-02  -7.378962e-03   6.074090e-03  -6.460283e-03  -1.728119e-02   6.763841e-03  -2.037226e-02  -1.547955e-02   6.074090e-03  -2.037226e-02  -1.354332e-02   1.037083e-02   1.517786e-04  -6.164353e-03   2.765203e-02  -6.612062e-03   2.366430e+03   5.326395e+06   5.326408e+06   5.326407e+06   1.651128e+00   1.651128e+00   5.446323e-02   3.568665e-02   4.114251e-02  -1.334549e+03   6.185826e+02  -1.729428e+03  -1.240073e+03  -1.034147e+03   3.063014e-01  -9.516196e-01  -2.448519e-02   9.405445e-01   2.985693e-01   1.619640e-01   1.468176e-01   7.263922e-02  -9.864928e-01  -4.108379e+06  -3.248984e+05   4.011698e+06  -1.271274e-01  -6.828258e-01   7.194356e-01  -9.689626e-01  -6.954284e-02  -2.372239e-01   2.120142e-01  -7.272638e-01  -6.527919e-01  -3.083742e-02  -1.215931e-02   1.321901e-02   6.851249e-01   2.541882e-01  -6.826363e-01  -5.621071e-01  -4.115474e-01  -7.174011e-01   4.632921e-01  -8.752240e-01   1.390804e-01
   1.486191e-02   1.486324e-02   1.417106e-02   1.501360e+03   7.650662e-01   3.530774e-01   2.920086e-01   3.549140e-01  -1.125641e-02   2.758109e-02  -2.258747e-03  -1.712026e+03  -8.321291e+02  -1.127859e+03  -9.282071e+01  -3.733062e+02  -1.084884e+02   5.943069e+05  -5.137535e+05   2.271467e+05   3.661121e+05   1.260445e+05  -7.757073e+04   5.943336e+05   2.528527e+05  -3.471416e+05   4.795046e+05  -5.137704e+05   1.797461e+05   5.994824e+05  -3.349440e+05   2.273800e+05   5.941884e+05   2.528445e+05  -3.471723e+05   4.794971e+05  -5.138410e+05   1.797365e+05   5.994497e+05  -3.349529e+05   2.272843e+05   8.506912e-01   1.712147e-01   5.360663e-01   9.404902e-03   4.834920e-01   1.002368e-01  -3.791871e-02  -8.682905e-02   8.909004e-01   9.436019e-01   1.141138e-01   3.107949e-01  -1.549141e-01   9.818019e-01   1.098479e-01  -2.926038e-01  -1.517992e-01   9.441080e-01   8.123520e-01   5.074119e-01   1.018724e+00   1.120653e-01   2.296242e-01   2.434725e-02  -1.373991e-01  -3.646909e-01   4.555903e-02   7.674526e-02   2.115939e-01   3.144506e-02  -1.521770e-01   3.538185e-01  -1.662540e-01  -1.736514e+00  -3.014892e-01   3.296836e-01   3.380067e-01  -4.594730e-02  -7.347523e-01   1.144417e+00  -9.715497e-03   8.574736e-02   5.907949e-02  -4.660383e-03  -9.116932e-03  -3.964044e-03   1.088995e-02  -4.001664e-02   1.036534e-01  -9.715497e-03  -9.116932e-03   1.036534e-01   4.054349e-02   3.498472e-02  -2.199034e-02   4.520387e-02   2.409477e-02   1.802630e-02   2.283716e+03   1.259686e+06   1.259816e+06   1.259748e+06   1.444624e+00   1.444624e+00   1.533685e-01   1.327558e-01   7.679707e-02  -1.224005e+03   1.049723e+03  -1.917664e+03  -9.573850e+02  -7.969651e+02   8.868810e-01   1.153994e-01   4.473533e-01   4.574276e-01  -3.551987e-01  -8.152262e-01  -6.482268e-02  -9.276405e-01   3.678059e-01  -9.499782e+05   1.941469e+05   1.063531e+06  -4.173816e-01   7.957065e-01   4.389120e-01   3.691248e-01   5.898058e-01  -7.182451e-01  -8.303851e-01  -1.377689e-01  -5.398891e-01  -5.995281e-02   3.025595e-02   1.145179e-01   7.054921e-01  -6.666758e-01  -2.404668e-01   6.661880e-01   7.395854e-01  -9.595245e-02  -2.418149e-01   9.250241e-02  -9.659031e-01
