     VARIABLES=
              x              y              z      nomin_den    nomin_voidr      fabric_xx      fabric_yy      fabric_zz      fabric_xy      fabric_xz      fabric_yz       sigma_xx       sigma_yy       sigma_zz       sigma_xy       sigma_xz       sigma_yz    sigmaDot_xx    sigmaDot_yy    sigmaDot_zz    sigmaDot_xy    sigmaDot_xz    sigmaDot_yz       Oldro_xx       Oldro_xy       Oldro_xz       Oldro_yx       Oldro_yy       Oldro_yz       Oldro_zx       Oldro_zy       Oldro_zz       Trues_xx       Trues_xy       Trues_xz       Trues_yx       Trues_yy       Trues_yz       Trues_zx       Trues_zy       Trues_zz           F_xX           F_xY           F_xZ           F_yX           F_yY           F_yZ           F_zX           F_zY           F_zZ           R_xX           R_xY           R_xZ           R_yX           R_yY           R_yZ           R_zX           R_zY           R_zZ           U_xX           U_yY           U_zZ           U_xY           U_xZ           U_yZ       Green_xx       Green_yy       Green_zz       Green_xy       Green_xz       Green_yz      Green_vol      Green_shr       Euler_xx       Euler_yy       Euler_zz       Euler_xy       Euler_xz       Euler_yz      Euler_vol      Euler_shr           l_xx           l_xy           l_xz           l_yx           l_yy           l_yz           l_zx           l_zy           l_zz           d_xx           d_yy           d_zz           d_xy           d_xz           d_yz           w_xy           w_xz           w_yz     norm_sigma  norm_sigmaDot     norm_Oldro     norm_Trues         norm_F         norm_U         norm_l         norm_d         norm_w              p              q        sigma_1        sigma_2        sigma_3     sigma_1_v1     sigma_1_v2     sigma_1_v3     sigma_2_v1     sigma_2_v2     sigma_2_v3     sigma_3_v1     sigma_3_v2     sigma_3_v3     sigmaDot_1     sigmaDot_2     sigmaDot_3  sigmaDot_1_v1  sigmaDot_1_v2  sigmaDot_1_v3  sigmaDot_2_v1  sigmaDot_2_v2  sigmaDot_2_v3  sigmaDot_3_v1  sigmaDot_3_v2  sigmaDot_3_v3            d_1            d_2            d_3         d_1_v1         d_1_v2         d_1_v3         d_2_v1         d_2_v2         d_2_v3         d_3_v1         d_3_v2         d_3_v3
ZONE I=2, J=2, K=2, DATAPACKING=POINT, STRANDID=5, SOLUTIONTIME=4
   5.010000e-03   5.010000e-03   4.780373e-03   1.641870e+03   6.140135e-01   3.042053e-01   2.924881e-01   3.263835e-01   1.256180e-02  -1.785203e-02  -3.168976e-02  -2.390114e+00  -3.576109e+00  -2.080477e+00   2.434247e-01   9.545677e-02   3.904060e-01   3.254616e+04  -1.862768e+04   1.258861e+05  -7.904035e+03  -8.987308e+04  -8.972962e+05   3.254604e+04   1.305959e+05  -1.587724e+05  -1.464039e+05  -1.862759e+04  -2.348931e+04  -2.097378e+04  -1.771103e+06   1.258860e+05   3.254617e+04   1.305958e+05  -1.587724e+05  -1.464039e+05  -1.862740e+04  -2.348933e+04  -2.097379e+04  -1.771103e+06   1.258861e+05   9.975491e-01  -8.356286e-04  -3.132327e-03   3.370918e-03   1.000284e+00  -2.524339e-04  -3.581848e-03  -6.283991e-03   9.920105e-01   9.999977e-01  -2.110607e-03   2.173431e-04   2.109938e-03   9.999932e-01   3.031070e-03  -2.237390e-04  -3.030605e-03   9.999954e-01   9.975548e-01   1.000298e+00   9.920045e-01   1.276317e-03  -3.354804e-03  -3.252213e-03  -2.435753e-03   3.041210e-04  -7.952631e-03   1.280402e-03  -3.339366e-03  -3.241837e-03  -3.361421e-03   7.392467e-03  -2.480559e-03   2.647170e-04  -8.104381e-03   1.247074e-03  -3.399883e-03  -3.316688e-03  -3.440074e-03   7.511393e-03  -2.697507e-02  -1.849387e-02  -1.914947e-02   2.358392e-02   1.239496e-02  -1.413653e-02   2.292103e-03  -3.766747e-02  -3.900746e-02  -2.697507e-02   1.239496e-02  -3.900746e-02   2.545021e-03  -8.428685e-03  -2.590200e-02  -2.103889e-02  -1.072079e-02   1.176547e-02   4.825223e+00   1.794088e+06   1.794088e+06   1.794088e+06   1.726219e+00   1.726219e+00   7.274429e-02   6.244788e-02   3.730942e-02  -2.682233e+00   1.635485e+00  -3.719986e+00  -2.453021e+00  -1.873693e+00  -1.745502e-01   9.596797e-01  -2.203341e-01  -8.912434e-01  -5.885790e-02   4.496899e-01  -4.185898e-01  -2.748647e-01  -8.655818e-01  -1.727159e+06   3.660955e+04   1.830354e+06   6.819345e-02   7.208412e-01   6.897373e-01  -9.965151e-01   1.592818e-02   8.187772e-02   4.803457e-02  -6.929172e-01   7.194153e-01  -5.169914e-02  -2.569451e-02   2.380608e-02   2.694430e-01   3.516117e-01   8.965320e-01   9.566246e-01  -2.048072e-01  -2.071797e-01  -1.107694e-01  -9.134677e-01   3.915443e-01
   5.010000e-03   5.010000e-03   1.430112e-02   1.327447e+03   9.963128e-01   2.567256e-01   3.202837e-01   3.177275e-01  -4.178585e-02   5.485632e-02   1.267499e-02  -2.163882e+00  -3.194084e-01  -1.370747e+00  -7.358018e-02  -5.580679e-01   1.470186e-02  -4.218489e+03  -5.149321e+03  -8.892824e+03  -1.245338e+03  -2.379588e+04  -4.113541e+04  -4.219109e+03   4.648078e+03  -1.505237e+04  -7.138629e+03  -5.149300e+03  -1.534754e+03  -3.254028e+04  -8.073601e+04  -8.892751e+03  -4.219085e+03   4.648080e+03  -1.505236e+04  -7.138629e+03  -5.149296e+03  -1.534754e+03  -3.254027e+04  -8.073601e+04  -8.892736e+03   9.873015e-01   2.024584e-04  -1.805126e-02   2.342313e-04   1.003941e+00  -1.679198e-03  -1.887664e-02  -1.561186e-02   9.948710e-01   9.999999e-01  -8.023857e-05   4.150015e-04   7.734365e-05   9.999757e-01   6.970998e-03  -4.155507e-04  -6.970966e-03   9.999756e-01   9.873093e-01   1.004026e+00   9.948275e-01   2.865943e-04  -1.846481e-02  -8.612920e-03  -1.243969e-02   4.070875e-03  -4.951539e-03   3.648706e-04  -1.830113e-02  -8.610627e-03  -4.440117e-03   2.523366e-02  -1.348536e-02   3.769825e-03  -5.716305e-03  -8.983470e-05  -1.897727e-02  -8.695840e-03  -5.143946e-03   2.608815e-02  -9.847175e-02  -1.636756e-02  -1.713895e-01   2.479114e-02   2.877115e-02   3.006874e-02  -8.067230e-02  -6.532105e-02   5.862576e-02  -9.847175e-02   2.877115e-02   5.862576e-02   4.211788e-03  -1.260309e-01  -1.762616e-02  -2.057935e-02  -4.535862e-02   4.769490e-02   2.707685e+00   8.945403e+04   8.945426e+04   8.945425e+04   1.724343e+00   1.724343e+00   2.364261e-01   2.153738e-01   9.752658e-02  -1.284679e+00   1.954011e+00  -2.524745e+00  -1.010186e+00  -3.191067e-01  -8.728246e-01   1.047472e-02  -4.879215e-01  -4.878422e-01   9.299616e-03   8.728823e-01  -1.368068e-02  -9.999019e-01   3.006923e-03  -9.660001e+04   5.722571e+02   7.776712e+04   2.977931e-01   6.447575e-01   7.039937e-01   9.283045e-01  -3.675748e-01  -5.603175e-02  -2.226435e-01  -6.702063e-01   7.079925e-01  -1.685488e-01   2.592526e-02   1.315487e-01   8.733596e-01   2.481112e-02   4.864437e-01  -1.029290e-01   9.855492e-01   1.345304e-01  -4.760764e-01  -1.675625e-01   8.632926e-01
   5.010000e-03   1.499000e-02   4.780373e-03   1.400025e+03   8.928229e-01   2.897115e-01   2.959931e-01   3.373723e-01   4.148073e-02  -2.823937e-02  -2.280203e-03  -2.956714e+00  -1.019404e+00  -2.847559e+00  -8.328784e-01   1.197101e+00   1.520482e-01  -1.411740e+04  -1.448650e+04  -1.304681e+04  -2.604548e+04   4.583863e+04   3.532518e+03  -1.411728e+04  -2.029904e+04   4.803205e+04  -3.179169e+04  -1.448651e+04   1.023177e+04   4.364521e+04  -3.166754e+03  -1.304693e+04  -1.411713e+04  -2.029899e+04   4.803200e+04  -3.179166e+04  -1.448646e+04   1.023176e+04   4.364515e+04  -3.166763e+03  -1.304679e+04   1.000222e+00   2.147117e-03   4.674366e-04   6.911903e-03   9.958977e-01   3.014964e-03  -1.731882e-03   5.733710e-04   9.957837e-01   9.999965e-01  -2.389065e-03   1.099762e-03   2.387717e-03   9.999964e-01   1.225459e-03  -1.102686e-03  -1.222829e-03   9.999986e-01   1.000237e+00   9.958882e-01   9.957865e-01   4.524399e-03  -6.234028e-04   1.796163e-03   2.477939e-04  -4.091458e-03  -4.202775e-03   4.515075e-03  -6.181001e-04   1.787276e-03  -2.682147e-03   6.366979e-03   1.825891e-04  -4.147006e-03  -4.248801e-03   4.564369e-03  -6.543130e-04   1.816475e-03  -2.737739e-03   6.424951e-03   1.762277e-02   2.282506e-02   8.919641e-03   4.693235e-02  -4.159512e-02   1.729789e-02  -6.713285e-03  -7.411422e-03  -2.375214e-02   1.762277e-02  -4.159512e-02  -2.375214e-02   3.487871e-02   1.103178e-03   4.943234e-03  -1.205364e-02   7.816463e-03   1.235466e-02   4.726929e+00   7.955409e+04   7.955401e+04   7.955387e+04   1.727399e+00   1.727399e+00   7.620554e-02   7.133887e-02   2.679645e-02  -2.274559e+00   3.155972e+00  -4.321660e+00  -1.671824e+00  -8.301931e-01  -7.226758e-01  -1.673801e-01   6.706144e-01  -6.000787e-01  -3.295323e-01  -7.289129e-01  -3.429946e-01   9.291891e-01  -1.377038e-01  -6.635164e+04  -1.700147e+04   4.170241e+04  -7.187323e-01  -4.061034e-01   5.643615e-01   5.331513e-03   8.084529e-01   5.885367e-01   6.952665e-01  -4.260092e-01   5.788961e-01  -5.820888e-02  -2.344579e-02   3.393016e-02   4.136349e-01  -9.029841e-01   1.163009e-01  -9.728004e-02   8.317528e-02   9.917754e-01   9.052308e-01   4.215467e-01   5.343813e-02
   5.010000e-03   1.499000e-02   1.430112e-02   1.496017e+03   7.713703e-01   4.257884e-01   2.557434e-01   1.605734e-01   3.760987e-04   2.444336e-02   4.198383e-02  -3.397974e+00  -3.804133e+00  -2.721280e-01  -1.941938e+00  -1.452104e-02  -9.052247e-01   1.021479e+05   7.187373e+05   4.201248e+05   2.089626e+06  -2.928745e+05   7.502376e+05   1.021483e+05   1.807143e+05  -1.380444e+06   3.998538e+06   7.187371e+05  -1.103155e+05   7.946948e+05   1.610791e+06   4.201249e+05   1.021482e+05   1.807143e+05  -1.380444e+06   3.998538e+06   7.187370e+05  -1.103155e+05   7.946948e+05   1.610791e+06   4.201249e+05   1.000924e+00   8.817663e-03  -6.225958e-03   4.570881e-03   9.965768e-01  -2.133165e-03  -1.403749e-03   7.019831e-03   9.949495e-01   9.999948e-01   2.132206e-03  -2.408175e-03  -2.143242e-03   9.999872e-01  -4.589346e-03   2.398359e-03   4.594483e-03   9.999866e-01   1.000905e+00   9.966151e-01   9.949609e-01   6.698549e-03  -3.835108e-03   2.424867e-03   9.354870e-04  -3.353781e-03  -5.016062e-03   6.685594e-03  -3.819059e-03   2.401808e-03  -2.478119e-03   9.965366e-03   8.615571e-04  -3.531082e-03  -5.104456e-03   6.740966e-03  -3.833573e-03   2.526823e-03  -2.591327e-03   1.007190e-02   3.227715e-02   4.994245e-02  -7.586629e-02   3.968842e-02  -3.719194e-02  -1.604920e-02   1.273066e-02   9.489941e-03   2.419305e-02   3.227715e-02  -3.719194e-02   2.419305e-02   4.481543e-02  -3.156781e-02  -3.279628e-03   5.127018e-03  -4.429848e-02  -1.276957e-02   5.957347e+00   4.676373e+06   4.676373e+06   4.676373e+06   1.727753e+00   1.727753e+00   1.155213e-01   9.508822e-02   6.560035e-02  -2.491412e+00   4.642733e+00  -5.350806e+00  -2.087818e+00  -3.561117e-02   6.383862e-01   7.557292e-01   1.460701e-01   7.634767e-01  -5.975906e-01  -2.449260e-01   9.780760e-02  -2.678785e-01   9.584752e-01  -3.670142e+06  -1.523775e+05   5.063530e+06  -7.070041e-01   6.940195e-01  -1.359490e-01   3.379794e-01   1.627200e-01  -9.269801e-01   6.212206e-01   7.013267e-01   3.496080e-01  -6.071062e-02   7.154840e-03   7.283404e-02   4.681222e-01  -8.724467e-01   1.403508e-01   4.146426e-01   3.571266e-01   8.369779e-01   7.803416e-01   3.336126e-01  -5.289325e-01
   1.499000e-02   5.010000e-03   4.780373e-03   1.670194e+03   5.866419e-01   2.790830e-01   2.957002e-01   3.299787e-01  -3.403317e-03   3.771547e-02  -1.289232e-02  -9.645486e+00  -8.030797e+00  -6.374049e+00  -4.731971e+00  -4.178380e+00  -1.422758e+00   1.038703e+05  -3.197172e+04  -2.201498e+04   6.435634e+04   2.929386e+05   1.753539e+04   1.038706e+05   3.842101e+05   6.301947e+05  -2.554971e+05  -3.197153e+04   4.196821e+04  -4.431820e+04  -6.898422e+03  -2.201599e+04   1.038712e+05   3.842104e+05   6.301950e+05  -2.554969e+05  -3.197106e+04   4.196831e+04  -4.431800e+04  -6.898360e+03  -2.201562e+04   1.002813e+00   6.359582e-03   1.750311e-03  -3.091961e-03   1.005623e+00   3.617203e-03   6.561942e-03  -1.009743e-02   9.862489e-01   9.999860e-01   4.724452e-03  -2.400673e-03  -4.707782e-03   9.999651e-01   6.902563e-03   2.433200e-03  -6.891164e-03   9.999733e-01   1.002830e+00   1.005687e+00   9.862433e-01   1.600672e-03   4.132997e-03  -3.171056e-03   2.843742e-03   5.709662e-03  -1.364852e-02   1.600935e-03   4.107879e-03  -3.154954e-03  -1.698371e-03   1.359163e-02   2.783119e-03   5.559239e-03  -1.402213e-02   1.650576e-03   4.223937e-03  -3.372002e-03  -1.893259e-03   1.386580e-02  -4.271282e-03   2.944939e-02   1.130122e-02  -2.755867e-02   2.552883e-02   1.262146e-02   2.040297e-02  -6.019274e-02  -7.965384e-02  -4.271282e-03   2.552883e-02  -7.965384e-02   9.453599e-04   1.585210e-02  -2.378564e-02   2.850403e-02  -4.550872e-03   3.640710e-02   1.682896e+01   7.912717e+05   7.912715e+05   7.912718e+05   1.729107e+00   1.729107e+00   1.138767e-01   9.300848e-02   6.570642e-02  -8.016778e+00   1.042495e+01  -1.477942e+01  -6.023436e+00  -3.247474e+00   7.421479e-01   5.532187e-01   3.783722e-01  -1.292928e-01   6.721017e-01  -7.290834e-01  -6.576472e-01   4.921669e-01   5.703261e-01  -2.334545e+05  -1.994102e+04   3.032792e+05   6.093647e-01   7.779678e-01   1.531037e-01   1.810872e-02   1.793902e-01  -9.836113e-01   7.926832e-01  -6.021506e-01  -9.522603e-02  -8.773575e-02  -1.495283e-03   3.083473e-02   1.849119e-01  -2.034517e-01  -9.614650e-01   9.800325e-01   1.109483e-01   1.650055e-01  -7.310225e-02   9.727784e-01  -2.199049e-01
   1.499000e-02   5.010000e-03   1.430112e-02   1.369364e+03   9.352056e-01   4.195269e-01   2.255981e-01   2.639659e-01   1.711746e-01   2.072902e-02  -5.482711e-02  -3.168857e+00  -2.193963e+00  -1.727233e+00  -1.894390e+00   3.324892e-01   5.609441e-01  -3.808869e+04  -1.325431e+04   3.050329e+04  -2.598647e+04  -5.676143e+02  -5.148221e+03  -3.808860e+04  -4.293892e+04  -8.636875e+03  -9.034285e+03  -1.325442e+04  -1.939555e+03   7.502206e+03  -8.356595e+03   3.050359e+04  -3.808911e+04  -4.293919e+04  -8.636813e+03  -9.034616e+03  -1.325477e+04  -1.939490e+03   7.502251e+03  -8.356480e+03   3.050331e+04   1.013792e+00  -2.106004e-03   2.042762e-02   7.288734e-03   1.008390e+00   2.080081e-02   3.371174e-02  -2.950852e-02   1.027079e+00   9.999692e-01  -4.247597e-03  -6.600775e-03   4.409075e-03   9.996866e-01   2.464466e-02   6.494026e-03  -2.467300e-02   9.996745e-01   1.014012e+00   1.008811e+00   1.027123e+00   2.148498e-03   2.718858e-02  -4.633600e-03   1.448229e-02   8.862413e-03   2.787076e-02   2.110025e-03   2.774280e-02  -4.687643e-03   1.707182e-02   3.447603e-02   1.232590e-02   8.472056e-03   2.555502e-02   2.932029e-03   2.550203e-02  -3.941755e-03   1.545099e-02   3.172317e-02   4.489578e-02  -2.943750e-02   1.193118e-01  -3.651044e-02   4.011633e-02   1.302242e-01   7.800859e-02  -7.915749e-02   7.557792e-02   4.489578e-02   4.011633e-02   7.557792e-02  -3.297397e-02   9.866020e-02   2.553333e-02   3.536469e-03   2.065161e-02   1.046908e-01   5.096539e+00   6.845951e+04   6.845971e+04   6.846014e+04   1.761372e+00   1.761372e+00   2.346944e-01   1.796750e-01   1.509912e-01  -2.363351e+00   4.016531e+00  -4.937789e+00  -1.713870e+00  -4.383947e-01  -7.562233e-01  -6.213146e-01   2.051696e-01   3.512650e-01  -1.209516e-01   9.284307e-01  -5.520319e-01   7.741698e-01   3.097125e-01  -4.132977e+04  -1.271433e+04   3.320439e+04  -9.554220e-01  -2.877007e-01   6.631036e-02  -2.662842e-01   9.366997e-01   2.273464e-01  -1.275206e-01   1.995544e-01  -9.715537e-01  -5.740371e-02   5.787304e-02   1.601207e-01  -7.008377e-01  -3.928594e-01   5.953890e-01  -2.863291e-01   9.194128e-01   2.696216e-01  -6.533316e-01   1.848374e-02  -7.568462e-01
   1.499000e-02   1.499000e-02   4.780373e-03   1.459500e+03   8.156899e-01   2.546550e-01   2.592103e-01   4.490977e-01   1.002941e-02  -1.231850e-02  -1.169312e-02  -5.709172e-01  -2.311911e-01  -7.074509e-01   7.684022e-03  -1.346964e-01  -4.430730e-02  -1.364514e+04  -1.244835e+04   4.868703e+04   1.319931e+05   1.982504e+05   3.090374e+04  -1.364521e+04   1.712080e+04   2.367795e+05   2.468654e+05  -1.244836e+04  -3.951468e+04   1.597212e+05   1.013222e+05   4.868693e+04  -1.364512e+04   1.712080e+04   2.367795e+05   2.468654e+05  -1.244833e+04  -3.951467e+04   1.597213e+05   1.013222e+05   4.868703e+04   9.935253e-01  -1.207326e-02  -4.028118e-03  -4.631005e-03   1.007628e+00   6.911844e-03  -8.964628e-04   1.998400e-02   9.988365e-01   9.999919e-01  -3.705404e-03  -1.562070e-03   3.695145e-03   9.999719e-01  -6.519754e-03   1.586185e-03   6.513929e-03   9.999775e-01   9.934987e-01   1.007775e+00   9.987753e-01  -8.318127e-03  -2.418206e-03   1.343293e-02  -6.442621e-03   7.929758e-03  -1.130777e-03  -8.339665e-03  -2.464733e-03   1.348698e-02   1.187867e-04   2.034161e-02  -6.608967e-03   7.083136e-03  -1.337652e-03  -8.315501e-03  -2.391470e-03   1.331340e-02  -2.878275e-04   1.999361e-02  -5.867371e-02  -1.748821e-02   8.744250e-03  -7.205141e-03  -2.003224e-02   4.870646e-03  -6.840096e-03  -1.390861e-02  -7.049893e-02  -5.867371e-02  -2.003224e-02  -7.049893e-02  -1.234668e-02   9.520768e-04  -4.518980e-03  -5.141535e-03   7.792173e-03   9.389627e-03   9.642213e-01   3.966740e+05   3.966740e+05   3.966740e+05   1.732257e+00   1.732257e+00   9.753034e-02   9.571588e-02   1.872530e-02  -5.031864e-01   4.636146e-01  -7.488389e-01  -5.428018e-01  -2.179185e-01   4.307525e-01   1.275778e-02   9.023799e-01   8.850539e-01  -2.014628e-01  -4.196336e-01  -1.764424e-01  -9.794131e-01   9.807194e-02  -2.668761e+05  -5.901942e+04   3.484891e+05  -7.398920e-01   6.521521e-01   1.650985e-01   2.489640e-01   4.934394e-01  -8.333874e-01   6.249614e-01   5.755130e-01   5.274542e-01  -7.090264e-02  -6.226741e-02  -1.603483e-02   1.560647e-02   9.223152e-02   9.956153e-01  -9.601979e-01  -2.763467e-01   4.065142e-02   2.788843e-01  -9.566221e-01   8.424771e-02
   1.499000e-02   1.499000e-02   1.430112e-02   1.293734e+03   1.048334e+00   2.173450e-01   3.907618e-01   1.918932e-01   5.344598e-02   5.145435e-05  -3.084747e-02  -3.702171e-01  -8.229112e-01  -3.535013e-02   2.236473e-01  -7.937195e-02   1.771796e-01  -1.568750e+03  -2.947567e+03  -5.673931e+02   1.551388e+04  -4.964268e+03  -6.033221e+03  -1.568806e+03   6.863892e+03  -5.713630e+03   2.416404e+04  -2.947741e+03   3.974955e+03  -4.214984e+03  -1.604131e+04  -5.674087e+02  -1.568788e+03   6.863873e+03  -5.713623e+03   2.416404e+04  -2.947702e+03   3.974946e+03  -4.214984e+03  -1.604132e+04  -5.674071e+02   1.005616e+00   2.711863e-03  -2.705008e-02  -7.848659e-03   9.976578e-01   3.347499e-04  -1.060215e-02   4.817940e-03   9.707895e-01   9.999512e-01   5.294313e-03  -8.337872e-03  -5.313801e-03   9.999832e-01  -2.316909e-03   8.325465e-03   2.361102e-03   9.999626e-01   1.005521e+00   9.976668e-01   9.709779e-01  -2.549513e-03  -1.896827e-02   2.483666e-03   5.719067e-03  -2.324152e-03  -2.841796e-02  -2.577131e-03  -1.874854e-02   2.468907e-03  -8.341015e-03   3.017131e-02   5.211560e-03  -2.346294e-03  -3.123874e-02  -2.481554e-03  -1.936093e-02   2.682104e-03  -9.457824e-03   3.179693e-02  -2.855903e-02   4.100130e-02  -1.009845e-01   1.342423e-02  -8.738075e-02   6.871544e-02  -6.855874e-02   2.720691e-02   6.873007e-02  -2.855903e-02  -8.738075e-02   6.873007e-02   2.721276e-02  -8.477163e-02   4.796117e-02   1.378853e-02  -1.621289e-02   2.075426e-02   1.026031e+00   3.108081e+04   3.108089e+04   3.108088e+04   1.717543e+00   1.717543e+00   1.881392e-01   1.833819e-01   4.204095e-02  -4.094928e-01   7.599832e-01  -8.698376e-01  -3.625875e-01   3.946637e-03  -1.227617e-01   9.695994e-01  -2.116756e-01   9.924158e-01   1.213011e-01  -1.992306e-02   6.359090e-03  -2.125160e-01  -9.771369e-01  -2.938100e+04  -4.748501e+03   2.904579e+04   5.919590e-01  -7.378846e-01  -3.242079e-01   5.477929e-01   7.328609e-02   8.333979e-01   5.911916e-01   6.709362e-01  -4.475903e-01  -1.320851e-01  -3.687352e-02   1.217489e-01   5.256201e-01  -7.502457e-01   4.010671e-01  -7.109672e-01  -6.462868e-01  -2.771986e-01   4.671714e-01  -1.394443e-01  -8.731014e-01
