     VARIABLES=
              x              y              z      nomin_den    nomin_voidr      fabric_xx      fabric_yy      fabric_zz      fabric_xy      fabric_xz      fabric_yz       sigma_xx       sigma_yy       sigma_zz       sigma_xy       sigma_xz       sigma_yz    sigmaDot_xx    sigmaDot_yy    sigmaDot_zz    sigmaDot_xy    sigmaDot_xz    sigmaDot_yz       Oldro_xx       Oldro_xy       Oldro_xz       Oldro_yx       Oldro_yy       Oldro_yz       Oldro_zx       Oldro_zy       Oldro_zz       Trues_xx       Trues_xy       Trues_xz       Trues_yx       Trues_yy       Trues_yz       Trues_zx       Trues_zy       Trues_zz           F_xX           F_xY           F_xZ           F_yX           F_yY           F_yZ           F_zX           F_zY           F_zZ           R_xX           R_xY           R_xZ           R_yX           R_yY           R_yZ           R_zX           R_zY           R_zZ           U_xX           U_yY           U_zZ           U_xY           U_xZ           U_yZ       Green_xx       Green_yy       Green_zz       Green_xy       Green_xz       Green_yz      Green_vol      Green_shr       Euler_xx       Euler_yy       Euler_zz       Euler_xy       Euler_xz       Euler_yz      Euler_vol      Euler_shr           l_xx           l_xy           l_xz           l_yx           l_yy           l_yz           l_zx           l_zy           l_zz           d_xx           d_yy           d_zz           d_xy           d_xz           d_yz           w_xy           w_xz           w_yz     norm_sigma  norm_sigmaDot     norm_Oldro     norm_Trues         norm_F         norm_U         norm_l         norm_d         norm_w              p              q        sigma_1        sigma_2        sigma_3     sigma_1_v1     sigma_1_v2     sigma_1_v3     sigma_2_v1     sigma_2_v2     sigma_2_v3     sigma_3_v1     sigma_3_v2     sigma_3_v3     sigmaDot_1     sigmaDot_2     sigmaDot_3  sigmaDot_1_v1  sigmaDot_1_v2  sigmaDot_1_v3  sigmaDot_2_v1  sigmaDot_2_v2  sigmaDot_2_v3  sigmaDot_3_v1  sigmaDot_3_v2  sigmaDot_3_v3            d_1            d_2            d_3         d_1_v1         d_1_v2         d_1_v3         d_2_v1         d_2_v2         d_2_v3         d_3_v1         d_3_v2         d_3_v3
ZONE I=2, J=2, K=2, DATAPACKING=POINT, STRANDID=5, SOLUTIONTIME=34
   5.084936e-03   5.084938e-03   4.855329e-03   1.569110e+03   6.888551e-01   2.965872e-01   3.708619e-01   3.325509e-01  -2.296953e-02  -3.439066e-02  -8.349599e-03  -2.400620e+02  -2.859110e+02  -2.019122e+02   1.917856e+01   4.534024e+01   4.585785e+01  -1.587776e+04  -1.316161e+05  -1.747951e+05   1.826163e+05   7.639263e+04  -3.569302e+05  -1.588457e+04  -4.689367e+04   2.109280e+05   4.121434e+05  -1.316206e+05  -9.000866e+05  -5.813313e+04   1.862420e+05  -1.747924e+05  -1.588479e+04  -4.689365e+04   2.109280e+05   4.121434e+05  -1.316208e+05  -9.000866e+05  -5.813308e+04   1.862420e+05  -1.747926e+05   1.027201e+00  -9.504075e-03  -3.298405e-03   1.833478e-02   9.900591e-01   6.863416e-03   8.030177e-04  -2.076206e-02   1.019300e+00   9.999024e-01  -1.379904e-02  -2.175353e-03   1.382767e-02   9.998099e-01   1.374453e-02   1.985278e-03  -1.377327e-02   9.999032e-01   1.027356e+00   9.902880e-01   1.019303e+00   4.145840e-03  -1.179583e-03  -7.131476e-03   2.773966e-02  -9.630832e-03   1.951566e-02   4.186621e-03  -1.221885e-03  -7.168121e-03   1.254150e-02   2.465821e-02   2.613323e-02  -1.002688e-02   1.886682e-02   4.529166e-03  -1.007734e-03  -6.636246e-03   1.165772e-02   2.398431e-02  -8.215912e-03   3.375823e-02   1.734970e-02  -2.319739e-04  -5.741748e-03   1.254932e-02   1.481643e-02   2.113583e-02   1.484912e-02  -8.215912e-03  -5.741748e-03   1.484912e-02   1.676313e-02   1.608306e-02   1.684257e-02   1.699510e-02   1.266635e-03  -4.293253e-03   4.351095e+02   1.054943e+06   1.054942e+06   1.054942e+06   1.753639e+00   1.753639e+00   5.084668e-02   4.435814e-02   2.485437e-02  -2.426284e+02   1.315432e+02  -3.010362e+02  -2.700749e+02  -1.567741e+02   4.073228e-02   9.242742e-01  -3.795499e-01  -8.561497e-01   2.281243e-01   4.636453e-01   5.151199e-01   3.060662e-01   8.006091e-01  -5.717461e+05  -1.054422e+05   3.548993e+05  -5.692649e-01   7.091058e-01  -4.160606e-01   3.913013e-01  -2.113835e-01  -8.956564e-01  -7.230634e-01  -6.726708e-01  -1.571408e-01  -2.379211e-02  -1.107766e-02   3.576123e-02  -7.392677e-01   6.732611e-01   1.423976e-02   4.939971e-01   5.565570e-01  -6.679904e-01   4.576572e-01   4.867893e-01   7.440337e-01
   5.084936e-03   5.084938e-03   1.422617e-02   1.561755e+03   6.968089e-01   3.050831e-01   3.419574e-01   3.396261e-01  -1.524495e-02  -2.548140e-02   2.987428e-02  -1.344406e+02  -1.054086e+02  -1.501545e+02   8.074630e+00   1.363047e+01   1.801221e+00   5.661597e+04   8.541631e+03   5.000588e+04   9.513051e+04   1.673097e+05   2.012629e+05   5.661567e+04   1.350773e+05   2.869806e+05   5.519375e+04   8.543614e+03   5.879531e+04   4.763136e+04   3.437383e+05   4.998947e+04   5.662183e+04   1.350770e+05   2.869799e+05   5.519335e+04   8.548443e+03   5.879527e+04   4.763081e+04   3.437382e+05   4.999635e+04   8.363316e-01   1.550390e-02  -3.076861e-01   2.615580e-02   7.900874e-01  -1.231582e-01   6.599620e-02   8.596897e-02   1.316608e+00   9.855223e-01  -9.475684e-03  -1.692811e-01  -6.872537e-03   9.953838e-01  -9.572824e-02   1.694067e-01   9.550570e-02   9.809078e-01   8.352238e-01   7.945038e-01   1.355346e+00   2.441326e-02  -7.934278e-02   6.069439e-03  -1.477549e-01  -1.840654e-01   4.216481e-01   1.965270e-02  -8.682888e-02   5.555684e-03   2.994258e-02   4.055628e-01  -1.942261e-01  -2.921023e-01   1.848193e-01   5.851940e-02  -1.355580e-01  -3.029598e-02  -1.005030e-01   3.389590e-01  -3.262492e-03   7.659035e-03  -2.588651e-02   3.495425e-02   1.265881e-02   3.364296e-02  -5.250053e-03  -7.459983e-03  -5.520928e-02  -3.262492e-03   1.265881e-02  -5.520928e-02   2.130664e-02  -1.556828e-02   1.309149e-02  -1.364761e-02  -1.031823e-02   2.055147e-02   2.285760e+02   4.830197e+05   4.830207e+05   4.830215e+05   1.783159e+00   1.783159e+00   7.990363e-02   7.038762e-02   3.781762e-02  -1.300012e+02   4.733274e+01  -1.568387e+02  -1.309564e+02  -1.022086e+02  -4.877504e-01   3.671777e-02   8.722106e-01  -8.179922e-01   3.297759e-01  -4.713136e-01   3.049396e-01   9.433449e-01   1.308135e-01  -3.152408e+05   4.096872e+04   3.894356e+05  -2.066521e-02   7.294153e-01  -6.837589e-01  -9.768487e-01   1.309249e-01   1.691903e-01   2.129311e-01   6.714253e-01   7.098228e-01  -6.414653e-02  -9.157794e-03   2.749136e-02  -3.197029e-01   2.447144e-01  -9.153715e-01  -7.639211e-01   5.049555e-01   4.018016e-01  -5.605484e-01  -8.277287e-01  -2.550675e-02
   5.084936e-03   1.491503e-02   4.855329e-03   1.539937e+03   7.208499e-01   3.327203e-01   3.773509e-01   2.899288e-01  -5.440088e-04  -3.214146e-02   8.201918e-03  -2.816813e+02  -4.111637e+02  -1.687125e+02   1.313736e+01   6.237736e+01  -5.699592e+01   2.602167e+05   1.859257e+06   1.434068e+05   1.921333e+06   1.630907e+06  -1.623051e+06   2.602302e+05  -2.121346e+05   1.801015e+06   4.054798e+06   1.859249e+06  -1.194123e+06   1.460814e+06  -2.051994e+06   1.434165e+05   2.602115e+05  -2.121337e+05   1.801019e+06   4.054799e+06   1.859222e+06  -1.194127e+06   1.460818e+06  -2.051998e+06   1.434052e+05   1.028000e+00   2.201000e-02   3.626819e-03   5.142589e-02   1.003953e+00   4.951177e-02   4.003898e-02   4.666308e-03   1.026958e+00   9.997414e-01  -1.379211e-02  -1.807886e-02   1.419089e-02   9.996546e-01   2.211844e-02   1.776756e-02  -2.236927e-02   9.995919e-01   1.029175e+00   1.003198e+00   1.027568e+00   3.633420e-02   2.257503e-02   2.647235e-02   3.051584e-02   4.213606e-03   2.855332e-02   3.722114e-02   2.369645e-02   2.728970e-02   2.109426e-02   6.225049e-02   2.387001e-02   2.423441e-03   2.445115e-02   3.427118e-02   1.841026e-02   2.566946e-02   1.691487e-02   5.573698e-02   3.364823e-02  -5.567851e-03   4.468485e-02   1.597777e-03  -1.236901e-02   2.108672e-02   1.665516e-02  -3.132140e-02   4.540477e-02   3.364823e-02  -1.236901e-02   4.540477e-02  -1.985037e-03   3.067001e-02  -5.117344e-03  -3.582814e-03   1.401484e-02   2.620406e-02   5.398969e+02   5.571862e+06   5.571869e+06   5.571864e+06   1.768210e+00   1.768210e+00   8.414364e-02   7.272099e-02   4.232978e-02  -2.871858e+02   2.574909e+02  -4.290726e+02  -2.999183e+02  -1.325667e+02  -1.923601e-01   9.478966e-01   2.539480e-01  -9.085522e-01  -2.698241e-01   3.189480e-01   3.708511e-01  -1.693722e-01   9.131169e-01  -4.390322e+06   1.363233e+06   5.289969e+06  -6.581207e-01   5.833054e-01   4.760588e-01  -4.616854e-01   1.868133e-01  -8.671490e-01  -5.947468e-01  -7.904781e-01   1.463579e-01  -1.283527e-02   8.439161e-03   7.108009e-02  -2.327884e-02   9.947488e-01   9.966398e-02  -7.725519e-01  -8.117293e-02   6.297417e-01   6.345248e-01  -6.233594e-02   7.703847e-01
   5.084936e-03   1.491503e-02   1.422617e-02   1.598290e+03   6.580223e-01   3.210577e-01   3.024815e-01   3.627622e-01   4.592282e-02  -9.675960e-03   6.017483e-03  -1.035386e+02  -1.419450e+02  -1.694767e+02  -3.633864e+01  -1.878223e+01   7.194047e+00   2.525895e+03  -1.325968e+05  -1.704642e+05  -9.424803e+05   5.896638e+05   1.071854e+06   2.534576e+03  -6.633235e+05   9.008548e+05  -1.221620e+06  -1.326025e+05  -3.602521e+05   2.784714e+05   2.503966e+06  -1.704829e+05   2.540058e+03  -6.633219e+05   9.008557e+05  -1.221618e+06  -1.325950e+05  -3.602526e+05   2.784725e+05   2.503965e+06  -1.704740e+05   1.081903e+00   8.862648e-02  -1.491358e-01   9.095523e-02   9.203304e-01   2.030751e-02   1.626874e-01  -4.735299e-02   1.159492e+00   9.902568e-01   7.129098e-04  -1.392513e-01   4.626509e-03   9.992664e-01   3.801631e-02   1.391762e-01  -3.829016e-02   9.895271e-01   1.094425e+00   9.215316e-01   1.168888e+00   8.543048e-02   1.378493e-02  -2.421085e-02   1.026274e-01  -7.144746e-02   1.835380e-01   8.594520e-02   1.456564e-02  -2.471659e-02   7.157263e-02   1.832570e-01   7.045503e-02  -1.027019e-01   1.358603e-01   8.882204e-02  -7.408199e-06  -2.226955e-03   3.453783e-02   1.754607e-01   3.417626e-02   2.748989e-02  -1.047538e-02   3.869738e-02  -2.952893e-02   7.952027e-03   1.866984e-02  -5.560927e-03  -5.759346e-02   3.417626e-02  -2.952893e-02  -5.759346e-02   3.309364e-02   4.097231e-03   1.195550e-03  -5.603744e-03  -1.457261e-02   6.756477e-03   2.512623e+02   3.044295e+06   3.044293e+06   3.044291e+06   1.851874e+00   1.851874e+00   9.034720e-02   8.708497e-02   2.405880e-02  -1.383201e+02   1.007518e+02  -1.777250e+02  -1.657248e+02  -7.151050e+01  -4.485582e-01  -3.985337e-01  -7.999790e-01  -3.363287e-01  -7.540156e-01   5.642193e-01   8.280571e-01  -5.221411e-01  -2.041816e-01  -3.034686e+06   1.882952e+05   2.545856e+06  -3.369791e-01  -6.923560e-01   6.380347e-01  -9.000019e-01   3.787545e-02  -4.342374e-01  -2.764810e-01   7.205614e-01   6.358849e-01  -5.778077e-02  -4.359075e-02   4.842540e-02   5.062691e-02  -1.704616e-02  -9.985722e-01  -3.897390e-01   9.202421e-01  -3.546851e-02   9.195327e-01   3.909781e-01   3.994546e-02
   1.491502e-02   5.084938e-03   4.855329e-03   1.625498e+03   6.302697e-01   3.706081e-01   3.543627e-01   2.750292e-01   3.775405e-03   1.600072e-02  -2.096306e-02  -5.428176e+02  -4.376395e+02  -2.017073e+02   1.389357e+01  -2.640799e+01   7.025322e+01  -2.468084e+04  -2.895834e+05   7.502672e+04  -4.499371e+05  -8.867203e+05   6.027199e+05  -2.468891e+04   2.880524e+05  -1.447709e+06  -1.187939e+06  -2.895850e+05   3.602822e+05  -3.257675e+05   8.451633e+05   7.501792e+04  -2.467467e+04   2.880521e+05  -1.447708e+06  -1.187939e+06  -2.895735e+05   3.602804e+05  -3.257668e+05   8.451614e+05   7.502321e+04   9.501132e-01  -2.404013e-02  -1.762251e-02   3.772751e-02   1.054616e+00   1.711357e-02  -4.460584e-02  -2.471134e-02   9.295535e-01   9.994155e-01  -3.124550e-02   1.386796e-02   3.094001e-02   9.992852e-01   2.172150e-02  -1.453675e-02  -2.127973e-02   9.996679e-01   9.513736e-01   1.055139e+00   9.293721e-01   8.962984e-03  -3.059540e-02  -2.128684e-03  -4.693593e-02   5.670187e-02  -6.766342e-02   9.024735e-03  -2.878062e-02  -2.249312e-03  -1.929916e-02   8.449342e-02  -5.579003e-02   5.103462e-02  -7.949956e-02   4.688933e-03  -3.723848e-02  -5.816691e-03  -2.808499e-02   9.149131e-02  -7.255017e-03   2.650701e-02   1.023367e-02  -3.298886e-02   2.290483e-03   3.216719e-02  -3.211785e-02  -1.046907e-02  -2.126215e-02  -7.255017e-03   2.290483e-03  -2.126215e-02  -3.240925e-03  -1.094209e-02   1.084906e-02   2.974794e-02   2.117576e-02   2.131813e-02   7.338819e+02   2.151808e+06   2.151827e+06   2.151824e+06   1.698295e+00   1.698295e+00   6.768650e-02   3.171483e-02   5.979658e-02  -3.940548e+02   3.329435e+02  -5.509890e+02  -4.515260e+02  -1.796494e+02   9.627398e-01  -2.400251e-01   1.245793e-01   2.642557e-01   9.328637e-01  -2.448145e-01   5.745385e-02  -2.686135e-01  -9.615331e-01  -1.483359e+06  -2.664800e+05   1.510602e+06   5.608648e-01   7.712404e-01  -3.010297e-01  -5.778927e-01   1.043269e-01  -8.094170e-01   5.928496e-01  -6.279364e-01  -5.042075e-01  -2.940647e-02  -6.657363e-03   9.837154e-03  -3.966352e-01   2.607075e-01  -8.801773e-01  -8.135971e-01  -5.438898e-01   2.055325e-01   4.251356e-01  -7.976312e-01  -4.278367e-01
   1.491502e-02   5.084938e-03   1.422617e-02   1.380088e+03   9.201669e-01   3.254081e-01   3.276449e-01   3.469470e-01   2.971297e-02  -2.720672e-02  -7.105072e-03  -3.701929e+01  -2.499951e+01  -4.800904e+01   3.784568e+00  -1.433295e+01  -6.757686e-01  -1.132968e+05  -2.537501e+04  -5.534700e+04  -7.997724e+04  -2.085540e+05  -1.698821e+05  -1.132961e+05  -6.245201e+03  -3.830050e+05  -1.537079e+05  -2.537311e+04  -9.512162e+03  -3.410348e+04  -3.302492e+05  -5.534734e+04  -1.132979e+05  -6.245015e+03  -3.830056e+05  -1.537077e+05  -2.537436e+04  -9.512165e+03  -3.410433e+04  -3.302492e+05  -5.534974e+04   1.138842e+00  -5.669100e-02  -3.466136e-02  -8.225984e-02   8.371867e-01  -4.048017e-02  -1.624016e-01   1.976179e-01   9.359221e-01   9.982804e-01   2.082623e-02   5.479510e-02  -1.342656e-02   9.911457e-01  -1.320985e-01  -5.706103e-02   1.311356e-01   9.897209e-01   1.147254e+00   8.545080e-01   9.297498e-01  -7.911034e-02  -8.746293e-02   8.188909e-02   1.650505e-01  -1.284259e-01  -6.060490e-02  -8.276119e-02  -9.406958e-02   7.651523e-02  -7.993423e-03   2.453872e-01   9.339246e-02  -2.360997e-01  -6.707430e-02  -6.234499e-02  -8.940338e-02   9.504852e-02  -6.992718e-02   2.531441e-01   5.881018e-04  -4.662556e-02   1.400045e-02   4.428394e-02   4.397999e-02   2.619302e-02  -2.917568e-02  -2.282246e-02   5.478394e-03   5.881018e-04   4.397999e-02   5.478394e-03  -1.170806e-03  -7.587612e-03   1.685278e-03  -4.545475e-02   2.158806e-02   2.450774e-02   6.895421e+01   5.451793e+05   5.451780e+05   5.451792e+05   1.718150e+00   1.718150e+00   9.139901e-02   4.569643e-02   7.915564e-02  -3.667595e+01   3.611338e+01  -6.033176e+01  -2.872454e+01  -2.097153e+01  -5.904540e-01   3.500605e-02  -8.063117e-01   5.476588e-01  -7.164607e-01  -4.321503e-01  -5.928186e-01  -6.967486e-01   4.038657e-01  -4.273850e+05  -7.614507e+04   3.095112e+05   3.955566e-01   6.685629e-01   6.297290e-01   8.929540e-01  -1.195414e-01  -4.339850e-01   2.148675e-01  -7.339847e-01   6.442813e-01  -4.938658e-03   1.087796e-02   4.410718e-02   8.082357e-01  -9.424361e-04   5.888583e-01   5.877780e-01   6.185755e-02  -8.066540e-01   3.566511e-02  -9.980845e-01  -5.054943e-02
   1.491502e-02   1.491503e-02   4.855329e-03   1.557842e+03   7.010709e-01   3.610977e-01   3.194442e-01   2.877121e-01  -3.505980e-03   6.284611e-04   3.269702e-02  -9.361082e+01  -9.239543e+01  -3.379883e+01   5.333163e+01   5.557701e+00  -1.417700e+01   2.975608e+04  -6.302495e+05  -1.633752e+06   1.237794e+06  -1.760005e+05  -3.248717e+06   2.975006e+04  -2.433531e+04  -2.440677e+06   2.499931e+06  -6.302582e+05  -3.051737e+06   2.088683e+06  -3.445701e+06  -1.633755e+06   2.976326e+04  -2.434269e+04  -2.440677e+06   2.499923e+06  -6.302452e+05  -3.051735e+06   2.088682e+06  -3.445698e+06  -1.633750e+06   1.107732e+00   1.634494e-03  -8.974494e-02   5.066175e-02   7.350407e-01   5.567595e-02  -1.739345e-01  -3.581082e-01   8.849292e-01   9.985503e-01  -4.498101e-02   2.956377e-02   3.616686e-02   9.674640e-01   2.504105e-01  -3.986560e-02  -2.489783e-01   9.676883e-01   1.114892e+00   8.002130e-01   8.676242e-01   4.249244e-02  -1.228794e-01  -1.624269e-01   1.299448e-01  -1.657355e-01  -1.028732e-01   5.066820e-02  -1.252562e-01  -1.380615e-01  -4.622132e-02   2.865453e-01   6.742213e-02  -5.139528e-01  -1.255088e-01  -1.068755e-02  -1.277986e-01  -2.429805e-01  -1.906798e-01   4.664345e-01  -2.269530e-02   1.447224e-02   2.068882e-02  -3.265376e-02  -7.223751e-02   4.058195e-02   2.164276e-02  -3.079407e-03  -4.612701e-02  -2.269530e-02  -7.223751e-02  -4.612701e-02  -9.090763e-03   2.116579e-02   1.875127e-02   2.356300e-02  -4.769704e-04   2.183068e-02   1.568538e+02   6.389281e+06   6.389285e+06   6.389278e+06   1.650052e+00   1.650052e+00   1.081183e-01   9.810974e-02   4.543173e-02  -7.326836e+01   1.149967e+02  -1.494715e+02  -4.243951e+01  -2.789409e+01   6.989985e-01  -7.022503e-01  -1.350762e-01   6.588616e-01   5.589762e-01   5.034352e-01   2.780331e-01   4.408970e-01  -8.534093e-01  -6.264686e+06   1.436926e+06   2.593515e+06  -4.565456e-01   6.027603e-01   6.544052e-01  -7.875791e-01   6.835104e-02  -6.124111e-01   4.138664e-01   7.949894e-01  -4.435160e-01  -8.730486e-02  -4.358953e-02  -1.016543e-02  -2.823478e-01  -8.100014e-01   5.139820e-01  -4.369084e-01   5.855665e-01   6.828052e-01  -8.540438e-01  -3.177449e-02  -5.192298e-01
   1.491502e-02   1.491503e-02   1.422617e-02   1.376158e+03   9.256513e-01   3.182256e-01   3.285566e-01   3.275767e-01   1.349881e-02  -3.092035e-02  -8.166919e-03  -6.025347e+00  -6.377741e+00  -6.193991e+00  -1.610012e+00  -8.556339e-01  -4.837504e-01   3.931950e+04   1.865889e+03   1.077233e+04   1.217584e+05  -5.402146e+04   1.945731e+05   3.931987e+04   3.210820e+04  -9.106741e+04   2.114080e+05   1.864896e+03  -2.635022e+04  -1.697464e+04   4.154962e+05   1.077260e+04   3.932001e+04   3.210824e+04  -9.106739e+04   2.114080e+05   1.865044e+03  -2.635021e+04  -1.697462e+04   4.154962e+05   1.077274e+04   2.936040e-01   3.826463e-01   7.425570e-01   7.998990e-01   3.323970e-01  -9.515680e-01   5.008865e-01  -4.989112e-01   2.517862e+00   8.979575e-02   9.147826e-01   3.938394e-01   9.117846e-01   8.360062e-02  -4.020694e-01   4.007313e-01  -3.952008e-01   8.265777e-01   9.564209e-01   5.749969e-01   2.756253e+00   1.375052e-01   2.080395e-01  -3.953344e-01  -1.153551e-02  -2.470908e-01   3.398250e+00   6.416634e-02   3.590111e-01  -6.441755e-01   1.046541e+00   2.505924e+00  -1.573730e+00  -1.321765e-01   1.324442e-01   4.952532e-01   7.100784e-01  -3.319623e-01  -5.244875e-01   1.506818e+00   3.035220e-02  -2.889994e-02   5.916378e-02  -1.216113e-02  -7.406405e-02  -9.423137e-03   7.233554e-03  -2.318164e-03   2.050181e-02   3.035220e-02  -7.406405e-02   2.050181e-02  -2.053054e-02   3.319867e-02  -5.870651e-03  -8.369406e-03   2.596511e-02  -3.552486e-03   1.106790e+01   4.788559e+05   4.788556e+05   4.788556e+05   3.046186e+00   3.046186e+00   1.070374e-01   9.971610e-02   3.890641e-02  -6.199026e+00   3.486517e+00  -8.365556e+00  -5.844835e+00  -4.386689e+00   6.394944e-01   6.457942e-01   4.171292e-01   8.876401e-02   4.769242e-01  -8.744509e-01  -7.636543e-01   5.962325e-01   2.476670e-01  -4.637964e+05   4.717012e+04   4.685840e+05  -3.185758e-01   7.075035e-01  -6.308315e-01  -8.911122e-01   3.344304e-03   4.537707e-01  -3.231540e-01  -7.067020e-01  -6.293995e-01  -7.795770e-02  -7.029977e-03   6.177764e-02   1.876252e-01   9.822295e-01  -4.698195e-03  -6.206637e-01   1.222636e-01   7.744858e-01   7.612971e-01  -1.423971e-01   6.325739e-01
