     VARIABLES=
              x              y              z      nomin_den    nomin_voidr      fabric_xx      fabric_yy      fabric_zz      fabric_xy      fabric_xz      fabric_yz       sigma_xx       sigma_yy       sigma_zz       sigma_xy       sigma_xz       sigma_yz    sigmaDot_xx    sigmaDot_yy    sigmaDot_zz    sigmaDot_xy    sigmaDot_xz    sigmaDot_yz       Oldro_xx       Oldro_xy       Oldro_xz       Oldro_yx       Oldro_yy       Oldro_yz       Oldro_zx       Oldro_zy       Oldro_zz       Trues_xx       Trues_xy       Trues_xz       Trues_yx       Trues_yy       Trues_yz       Trues_zx       Trues_zy       Trues_zz           F_xX           F_xY           F_xZ           F_yX           F_yY           F_yZ           F_zX           F_zY           F_zZ           R_xX           R_xY           R_xZ           R_yX           R_yY           R_yZ           R_zX           R_zY           R_zZ           U_xX           U_yY           U_zZ           U_xY           U_xZ           U_yZ       Green_xx       Green_yy       Green_zz       Green_xy       Green_xz       Green_yz      Green_vol      Green_shr       Euler_xx       Euler_yy       Euler_zz       Euler_xy       Euler_xz       Euler_yz      Euler_vol      Euler_shr           l_xx           l_xy           l_xz           l_yx           l_yy           l_yz           l_zx           l_zy           l_zz           d_xx           d_yy           d_zz           d_xy           d_xz           d_yz           w_xy           w_xz           w_yz     norm_sigma  norm_sigmaDot     norm_Oldro     norm_Trues         norm_F         norm_U         norm_l         norm_d         norm_w              p              q        sigma_1        sigma_2        sigma_3     sigma_1_v1     sigma_1_v2     sigma_1_v3     sigma_2_v1     sigma_2_v2     sigma_2_v3     sigma_3_v1     sigma_3_v2     sigma_3_v3     sigmaDot_1     sigmaDot_2     sigmaDot_3  sigmaDot_1_v1  sigmaDot_1_v2  sigmaDot_1_v3  sigmaDot_2_v1  sigmaDot_2_v2  sigmaDot_2_v3  sigmaDot_3_v1  sigmaDot_3_v2  sigmaDot_3_v3            d_1            d_2            d_3         d_1_v1         d_1_v2         d_1_v3         d_2_v1         d_2_v2         d_2_v3         d_3_v1         d_3_v2         d_3_v3
ZONE I=2, J=2, K=2, DATAPACKING=POINT, STRANDID=5, SOLUTIONTIME=10
   5.024936e-03   5.024938e-03   4.795329e-03   1.633333e+03   6.224493e-01   3.403268e-01   3.181370e-01   3.415362e-01  -1.497923e-02   2.274050e-02   2.931301e-02  -8.089268e+00  -1.094352e+01  -1.062626e+01  -4.397471e-01  -8.185785e-01  -5.387116e-01   7.815362e+04  -3.799248e+05  -5.584421e+04  -1.227817e+05  -1.163291e+05   6.852165e+04   7.815941e+04  -1.691289e+05  -2.651891e+05  -7.644209e+04  -3.799206e+05   1.588752e+04   3.253763e+04   1.211474e+05  -5.583842e+04   7.815265e+04  -1.691296e+05  -2.651895e+05  -7.644207e+04  -3.799297e+05   1.588641e+04   3.253670e+04   1.211476e+05  -5.584730e+04   9.930431e-01  -1.291045e-02  -1.637417e-02   5.080447e-03   9.984707e-01  -4.415348e-03  -5.132583e-03  -1.851182e-02   9.887054e-01   9.999422e-01  -9.084044e-03  -5.743127e-03   9.124769e-03   9.999331e-01   7.105152e-03   5.678200e-03  -7.157146e-03   9.999583e-01   9.930030e-01   9.986537e-01   9.887268e-01  -3.904006e-03  -1.079944e-02  -1.134262e-02  -6.906618e-03  -1.273495e-03  -1.108704e-02  -3.826472e-03  -1.067865e-02  -1.124997e-02  -6.422386e-03   1.930421e-02  -7.074783e-03  -1.814272e-03  -1.180959e-02  -4.206212e-03  -1.101196e-02  -1.182889e-02  -6.899550e-03   2.012885e-02   3.465992e-01  -5.708339e-01   4.161001e-01   2.284486e-01   1.768525e-01   1.749515e-01  -1.238521e-01  -5.886543e-01   3.121259e-01   3.465992e-01   1.768525e-01   3.121259e-01  -1.711927e-01   1.461240e-01  -2.068514e-01  -3.996412e-01   2.699761e-01   3.818029e-01   1.738465e+01   5.237660e+05   5.237628e+05   5.237698e+05   1.720891e+00   1.720891e+00   1.092003e+00   6.600937e-01   8.699123e-01  -9.886348e+00   3.348838e+00  -1.123182e+01  -1.075650e+01  -7.670720e+00   2.612062e-01  -6.297860e-01   7.315333e-01  -2.385361e-01  -7.764531e-01  -5.832847e-01   9.353458e-01  -2.213949e-02  -3.530411e-01  -4.336072e+05  -1.597149e+04   9.196327e+04   1.597477e-01   9.359159e-01  -3.139142e-01   6.068198e-02  -3.267068e-01  -9.431757e-01  -9.852910e-01   1.316212e-01  -1.089839e-01   1.447471e-02   1.887303e-01   6.323725e-01   2.269224e-01   8.484244e-01   4.782073e-01  -7.565930e-01  -1.556084e-01   6.351008e-01   6.132481e-01  -5.059269e-01   6.066010e-01
   5.024936e-03   5.024938e-03   1.428617e-02   1.385013e+03   9.133399e-01   4.275674e-01   3.622204e-01   2.102122e-01  -3.758693e-02   8.601022e-03   6.834257e-03  -8.099284e+00  -9.725366e+00  -8.188543e+00   3.508723e-01  -2.627422e+00  -2.446330e-01  -1.378969e+05  -1.075434e+05   2.811613e+05   3.357298e+05  -7.111667e+05  -1.085756e+06  -1.379534e+05   1.135647e+05  -1.341462e+06   5.578534e+05  -1.075333e+05   3.084473e+04  -8.091922e+04  -2.202380e+06   2.813007e+05  -1.380111e+05   1.135685e+05  -1.341480e+06   5.578545e+05  -1.076026e+05   3.084136e+04  -8.093864e+04  -2.202380e+06   2.812424e+05   9.123817e-01  -6.100680e-02  -1.236159e-01   5.864562e-03   9.671611e-01  -4.882064e-02   4.149057e-02   8.197276e-02   1.165671e+00   9.962697e-01  -3.578018e-02  -7.852746e-02   3.088429e-02   9.975545e-01  -6.269903e-02   8.057880e-02   6.003987e-02   9.949383e-01   9.125026e-01   9.719004e-01   1.172539e+00  -2.430387e-02  -3.073416e-02   2.570849e-02  -8.290191e-02  -2.707897e-02   1.882267e-01  -2.329421e-02  -3.235341e-02   2.793863e-02   2.608194e-02   1.746126e-01  -9.512703e-02  -3.478408e-02   1.302894e-01  -2.906147e-02  -4.794025e-02   6.481367e-03   1.260827e-04   1.496753e-01  -1.685746e+00  -8.670760e-01  -5.673688e+00  -5.229516e-01   5.707069e-01  -2.727406e+00   7.463196e-01   1.020863e+00   8.242605e+00  -1.685746e+00   5.707069e-01   8.242605e+00  -6.950138e-01  -2.463684e+00  -8.532715e-01  -1.720622e-01  -3.210004e+00  -1.874135e+00   1.554364e+01   2.662916e+06   2.662953e+06   2.662963e+06   1.776652e+00   1.776652e+00   1.064716e+01   9.255792e+00   5.262340e+00  -8.671064e+00   4.985746e+00  -1.087787e+01  -9.720194e+00  -5.415129e+00   7.000486e-01  -8.665513e-02   7.088179e-01   4.044027e-02   9.958277e-01   8.180299e-02   7.129492e-01   2.860128e-02  -7.006322e-01  -2.187548e+06  -1.511348e+05   2.374404e+06   1.750017e-01  -7.375401e-01  -6.522339e-01  -9.692464e-01  -1.263902e-02  -2.457676e-01   1.730199e-01   6.751851e-01  -7.170699e-01  -2.512987e+00   7.653735e-01   8.875178e+00  -9.321326e-01  -2.752092e-01  -2.353482e-01   2.865873e-01  -9.579384e-01  -1.488798e-02   2.213517e-01   8.132537e-02  -9.717971e-01
   5.024936e-03   1.497503e-02   4.795329e-03   1.515909e+03   7.481257e-01   3.060556e-01   3.402872e-01   3.536573e-01  -7.514538e-03  -1.775051e-02  -1.576533e-02  -1.958760e+01  -1.238277e+01  -2.616164e+01   3.023899e+00   6.253153e+00   1.564453e+00  -2.498933e+05   1.603117e+05  -2.828852e+05   6.034906e+05  -5.553877e+05   5.987772e+05  -2.498924e+05   2.898955e+05  -1.094791e+06   9.170863e+05   1.603117e+05  -1.791044e+05  -1.598908e+04   1.376648e+06  -2.828921e+05  -2.498885e+05   2.898953e+05  -1.094792e+06   9.170853e+05   1.603142e+05  -1.791046e+05  -1.599044e+04   1.376648e+06  -2.828868e+05   1.000674e+00   6.467816e-03  -1.108508e-03   7.903430e-03   9.846683e-01   1.580528e-03  -2.889865e-03   8.319875e-03   9.873376e-01   9.999993e-01  -7.203711e-04   9.114376e-04   7.234841e-04   9.999939e-01  -3.419742e-03  -9.089686e-04   3.420399e-03   9.999937e-01   1.000682e+00   9.846861e-01   9.873250e-01   7.172640e-03  -2.004823e-03   4.958406e-03   7.095500e-04  -1.515865e-02  -1.258034e-02   7.115194e-03  -1.975018e-03   4.881826e-03  -9.009814e-03   1.418311e-02   5.813878e-04  -1.581762e-02  -1.292629e-02   7.373737e-03  -2.088080e-03   5.177793e-03  -9.387507e-03   1.470445e-02  -8.610878e-02   8.529509e-04  -3.348175e-01  -1.421731e-01  -7.711842e-02  -3.316297e-01   3.266657e-01   2.603560e-01  -3.814058e-02  -8.610878e-02  -7.711842e-02  -3.814058e-02  -7.066007e-02  -4.075893e-03  -3.563686e-02   7.151302e-02  -3.307416e-01  -2.959928e-01   3.649528e+01   2.054099e+06   2.054099e+06   2.054098e+06   1.716374e+00   1.716374e+00   6.569683e-01   1.654556e-01   6.357922e-01  -1.937734e+01   1.922068e+01  -3.042036e+01  -1.948464e+01  -8.227013e+00   5.421655e-01  -3.962836e-02  -8.393368e-01  -6.554879e-01   6.050244e-01  -4.519747e-01   5.257302e-01   7.952201e-01   3.020474e-01  -1.732861e+06  -2.452697e+05   1.605664e+06  -4.136757e-01   6.579627e-01  -6.292515e-01  -8.329679e-01   5.445373e-03   5.532945e-01   3.674737e-01   7.530308e-01   5.458092e-01  -1.588118e-01  -4.626679e-02   3.710787e-03  -6.852158e-01  -6.919050e-01  -2.274792e-01  -5.199601e-01   2.459969e-01   8.180018e-01   5.100204e-01  -6.787879e-01   5.283240e-01
   5.024936e-03   1.497503e-02   1.428617e-02   1.534576e+03   7.268609e-01   3.702701e-01   3.855259e-01   2.442040e-01   5.677062e-02  -6.905784e-03   4.068125e-02  -1.506212e+01  -1.507091e+01  -5.830849e+00   2.177168e+00   2.247641e+00  -5.022237e+00   5.718162e+05   1.897152e+05  -5.938598e+04   3.634470e+05   1.848857e+05   2.804631e+05   5.718132e+05   5.162305e+05   2.755301e+05   2.106724e+05   1.897051e+05   4.571968e+04   9.418777e+04   5.152412e+05  -5.934255e+04   5.717712e+05   5.162297e+05   2.755375e+05   2.106853e+05   1.896631e+05   4.570394e+04   9.419290e+04   5.152289e+05  -5.935881e+04   1.013682e+00   5.193591e-02  -7.267282e-02   4.481235e-03   1.001948e+00   2.689219e-02   2.840829e-01   4.224911e-03   1.160233e+00   9.864317e-01   2.628070e-02  -1.620553e-01  -2.404874e-02   9.995872e-01   1.571945e-02   1.624015e-01  -1.160893e-02   9.866565e-01   1.045956e+00   1.002851e+00   1.156952e+00   2.782177e-02   1.160902e-01   1.150212e-02   5.413742e-02   3.307853e-03   1.760731e-01   2.916835e-02   1.280279e-01   1.403607e-02   7.783946e-02   1.837471e-01   1.977858e-03   6.374505e-04   1.392633e-01   2.450195e-02   7.052765e-02   9.345710e-03   4.729288e-02   1.265238e-01  -3.390106e-01   4.995654e-01  -2.079300e+00   3.791235e-01  -2.106438e-01  -2.128262e-01  -6.704921e-01   1.488685e-01   3.337756e+00  -3.390106e-01  -2.106438e-01   3.337756e+00   4.393445e-01  -1.374896e+00  -3.197884e-02   6.022094e-02  -7.044038e-01  -1.808474e-01   2.390337e+01   1.014750e+06   1.014746e+06   1.014713e+06   1.861998e+00   1.861998e+00   4.066167e+00   3.933025e+00   1.032005e+00  -1.198796e+01   1.477810e+01  -2.102527e+01  -1.086675e+01  -4.071855e+00  -6.426451e-01   7.116286e-01   2.838874e-01  -7.661617e-01  -5.959910e-01  -2.403975e-01   1.879445e-03   3.719939e-01  -9.282333e-01  -4.680915e+05   3.614128e+05   8.088241e+05  -5.657309e-02   6.268002e-01  -7.771235e-01  -7.215243e-01   5.123272e-01   4.657505e-01   6.900740e-01   5.870624e-01   4.232677e-01  -1.005927e+00  -8.171502e-03   3.802200e+00  -8.484488e-01   4.580517e-01  -2.651853e-01  -4.224476e-01  -8.879111e-01  -1.820768e-01   3.188615e-01   4.245598e-02  -9.468499e-01
   1.497502e-02   5.024938e-03   4.795329e-03   1.623172e+03   6.326063e-01   3.373967e-01   3.039724e-01   3.586310e-01   1.789395e-02   4.249621e-02   1.190482e-02  -7.472850e+00  -1.226958e+01  -1.480865e+01   6.368968e+00   8.566043e-01   1.462203e+00   1.532901e+05   9.731885e+04  -2.668572e+04  -1.798090e+05  -6.179724e+04   3.036626e+05   1.532899e+05  -1.903036e+05  -3.568844e+04  -1.693106e+05   9.732561e+04   2.010687e+05  -8.792338e+04   4.062505e+05  -2.666212e+04   1.532804e+05  -1.902966e+05  -3.568845e+04  -1.693013e+05   9.730990e+04   2.010708e+05  -8.792117e+04   4.062521e+05  -2.668108e+04   1.005480e+00  -4.837564e-03  -1.630228e-02  -1.213176e-03   1.032296e+00   1.278331e-02  -4.593381e-03  -2.961616e-03   1.013903e+00   9.999817e-01  -1.781786e-03  -5.789005e-03   1.826280e-03   9.999688e-01   7.689797e-03   5.775123e-03  -7.700228e-03   9.999537e-01   1.005432e+00   1.032295e+00   1.014049e+00  -2.969317e-03  -1.042322e-02   5.004673e-03   5.505833e-03   3.283383e-02   1.421460e-02  -3.051412e-03  -1.053218e-02   5.136118e-03   1.751809e-02   2.133877e-02   5.345995e-03   3.081010e-02   1.338134e-02  -2.886272e-03  -1.014076e-02   4.463266e-03   1.651248e-02   2.001814e-02   4.471709e-02   8.112216e-02  -1.275849e-01   4.615856e-01   4.573304e-01  -4.836870e-01  -6.397948e-01   1.838709e-01   7.782165e-01   4.471709e-02   4.573304e-01   7.782165e-01   2.713539e-01  -3.836899e-01  -1.499080e-01  -1.902317e-01   2.561049e-01  -3.337789e-01   2.271010e+01   5.594979e+05   5.594951e+05   5.594871e+05   1.762132e+00   1.762132e+00   1.315215e+00   1.141673e+00   6.529720e-01  -1.151703e+01   1.463792e+01  -1.753105e+01  -1.516558e+01  -1.854453e+00   5.842290e-01  -8.114459e-01   1.523278e-02  -1.417882e-01  -8.356901e-02   9.863632e-01   7.991074e-01   5.784218e-01   1.638769e-01  -3.795189e+05   6.671961e+04   5.367225e+05  -8.849044e-02  -6.639966e-01   7.424810e-01  -8.947309e-01  -2.746001e-01  -3.522092e-01   4.377511e-01  -6.954879e-01  -5.697988e-01  -1.813486e-01   4.127063e-01   1.048906e+00   8.987846e-01  -3.088352e-01   3.111385e-01   1.276866e-01   8.633762e-01   4.881370e-01  -4.193834e-01  -3.990018e-01   8.154233e-01
   1.497502e-02   5.024938e-03   1.428617e-02   1.291223e+03   1.052317e+00   2.834257e-01   3.241426e-01   3.924316e-01  -6.012727e-03  -4.530894e-02   6.709535e-02  -1.254018e+01  -1.930587e+01  -2.243304e+01   1.794706e+01   1.539677e+01  -2.512530e+01   1.583665e+06   3.795411e+06   3.566668e+06  -2.360278e+06  -1.142646e+06   4.404857e+06   1.583696e+06  -2.989577e+06  -8.140979e+05  -1.731081e+06   3.795445e+06   4.944358e+06  -1.471176e+06   3.865324e+06   3.566580e+06   1.583685e+06  -2.989562e+06  -8.140801e+05  -1.731065e+06   3.795428e+06   4.944338e+06  -1.471168e+06   3.865301e+06   3.566561e+06   1.142520e+00  -1.026131e-02  -2.710300e-02   6.781894e-02   1.047338e+00   1.412679e-01  -6.057031e-02   3.917931e-02   9.837749e-01   9.991664e-01  -3.770164e-02   1.565498e-02   3.685864e-02   9.980165e-01   5.103421e-02  -1.754800e-02  -5.041464e-02   9.985742e-01   1.145130e+00   1.043672e+00   9.891574e-01   2.766318e-02  -3.913674e-02   9.241287e-02   1.568098e-01   4.927855e-02  -5.747896e-03   2.846625e-02  -4.048631e-02   9.338848e-02   6.678016e-02   1.549489e-01   1.126276e-01   3.904261e-02  -3.374365e-02   2.855043e-02  -4.348709e-02   8.615659e-02   3.930885e-02   1.436913e-01   1.524286e+00   2.466801e+00  -2.637617e+00   1.892160e-01  -9.058102e-01   1.502643e+00  -1.194013e+00  -2.690152e+00   2.435346e-01   1.524286e+00  -9.058102e-01   2.435346e-01   1.328008e+00  -1.915815e+00  -5.937545e-01   1.138792e+00  -7.218017e-01   2.096398e+00   5.895084e+01   9.153296e+06   9.153290e+06   9.153242e+06   1.844094e+00   1.844094e+00   5.215525e+00   3.843988e+00   3.524977e+00  -1.809303e+01   5.955051e+01  -5.681780e+01  -6.305721e+00   8.844434e+00  -4.182615e-01   6.543505e-01   6.299863e-01  -8.082653e-01   4.833697e-02  -5.868311e-01   4.144449e-01   7.546449e-01  -5.086713e-01  -2.060182e+05   8.397037e+05   8.312058e+06  -1.320296e-01  -7.176428e-01   6.837814e-01  -9.383853e-01  -1.317685e-01  -3.194842e-01   3.193764e-01  -6.838317e-01  -6.560281e-01  -1.562972e+00  -9.546602e-01   3.379643e+00  -5.268701e-01   7.963643e-01  -2.970046e-01  -3.339337e-01  -5.152912e-01  -7.892802e-01   7.815985e-01   3.166684e-01  -5.374244e-01
   1.497502e-02   1.497503e-02   4.795329e-03   1.444564e+03   8.344639e-01   2.719329e-01   3.553015e-01   3.727656e-01  -1.794478e-02  -2.995745e-02   5.380952e-02  -4.145712e+00  -3.935475e+00  -5.937062e+00  -1.188660e+00  -1.242572e-01  -6.879348e-01  -6.613611e+04   1.488826e+05   3.948347e+04  -9.665098e+04   1.740008e+05  -9.856107e+04  -6.613800e+04   8.092978e+04   2.614341e+05  -2.742122e+05   1.488773e+05   4.445714e+04   8.655260e+04  -2.415717e+05   3.948399e+04  -6.613019e+04   8.092954e+04   2.614338e+05  -2.742075e+05   1.488847e+05   4.446126e+04   8.655338e+04  -2.415732e+05   3.949516e+04   1.034786e+00   2.943593e-02  -8.556420e-02   5.729333e-02   9.848287e-01  -4.668999e-02  -5.983481e-02  -1.148383e-02   9.330496e-01   9.998280e-01  -1.345570e-02  -1.276394e-02   1.322955e-02   9.997569e-01  -1.763974e-02   1.299819e-02   1.746784e-02   9.997629e-01   1.034589e+00   9.839926e-01   9.347441e-01   4.231044e-02  -7.403921e-02  -2.922895e-02   3.882280e-02  -1.455705e-02  -5.995865e-02   4.378557e-02  -7.352227e-02  -2.960764e-02  -1.189763e-02   1.191305e-01   2.327454e-02  -1.815088e-02  -8.590531e-02   4.063022e-02  -7.476787e-02  -2.794941e-02  -2.692722e-02   1.214361e-01  -6.132771e-01   1.456502e+00  -1.068846e+00   1.691834e+00  -1.451487e+00   1.557583e+00  -1.613190e-01  -1.168200e+00   1.819204e-01  -6.132771e-01  -1.451487e+00   1.819204e-01   1.574168e+00  -6.150826e-01   1.946917e-01  -1.176664e-01  -4.537636e-01   1.362892e+00   8.935527e+00   4.960053e+05   4.959961e+05   4.959966e+05   1.711319e+00   1.711319e+00   3.529721e+00   2.881751e+00   2.038244e+00  -4.672750e+00   4.993256e+00  -6.664443e+00  -5.986825e+00  -1.366982e+00  -6.086980e-01  -6.799286e-01   4.088812e-01   4.202603e-01   1.608054e-01   8.930414e-01   6.729546e-01  -7.154291e-01  -1.878651e-01  -2.729386e+05  -8.314887e+04   4.783174e+05  -7.176214e-01  -6.329216e-01  -2.905681e-01  -5.297571e-01   2.252578e-01   8.176896e-01   4.520807e-01  -7.407221e-01   4.969445e-01  -2.757977e+00   4.062287e-02   8.345097e-01  -6.150316e-01   7.677940e-01  -1.795227e-01  -3.345953e-01  -4.602906e-01  -8.223007e-01  -7.139902e-01  -4.456735e-01   5.399936e-01
   1.497502e-02   1.497503e-02   1.428617e-02   1.337523e+03   9.812748e-01   3.425744e-01   3.073851e-01   3.500405e-01  -8.994228e-02  -2.287217e-02   7.664224e-02  -2.815933e+01  -1.142026e+01  -1.812357e+01   4.178827e+00  -1.894309e+00  -2.118330e+01   3.524246e+05   3.876952e+05  -2.731753e+05  -7.695988e+05  -7.092153e+05   4.201165e+04   3.525016e+05  -2.623945e+05  -1.497551e+06  -1.276813e+06   3.876127e+05   7.166211e+05   7.916713e+04  -6.326325e+05  -2.732003e+05   3.524015e+05  -2.623804e+05  -1.497568e+06  -1.276797e+06   3.875721e+05   7.165456e+05   7.917070e+04  -6.327076e+05  -2.732647e+05   1.134770e+00   8.561569e-02  -2.803693e-02   5.983579e-02   8.504488e-01   1.033256e-01   6.402104e-02  -3.961290e-02   1.027158e+00   9.988714e-01   1.612171e-02  -4.467724e-02  -1.259965e-02   9.968719e-01   7.802305e-02   4.579535e-02  -7.737207e-02   9.959500e-01   1.135667e+00   8.522337e-01   1.032313e+00   7.298961e-02   1.773193e-02   2.307706e-02   1.476910e-01  -1.339188e-01   3.325827e-02   7.275266e-02   2.006342e-02   2.239202e-02   1.567682e-02   1.870998e-01   1.061176e-01  -1.964046e-01   2.484727e-02   7.258785e-02   9.804316e-03   4.730794e-02  -2.181323e-02   2.069331e-01   1.595086e+00   9.219252e-01  -1.370277e+00   1.257967e+00   2.267024e+00  -2.921056e+00   8.765892e-01  -4.033263e-01  -3.084944e-01   1.595086e+00   2.267024e+00  -3.084944e-01   1.089946e+00  -2.468438e-01  -1.662191e+00  -1.680210e-01  -1.123433e+00  -1.258865e+00   4.699243e+01   2.282762e+06   2.282747e+06   2.282731e+06   1.758994e+00   1.758994e+00   4.642478e+00   3.975230e+00   2.397947e+00  -1.923439e+01   4.016560e+01  -3.757724e+01  -2.695714e+01   6.831223e+00   3.635241e-01  -6.215614e-01  -6.939105e-01  -9.283824e-01  -1.800033e-01  -3.251230e-01   7.717776e-02   7.624043e-01  -6.424821e-01  -1.109297e+06  -1.992409e+05   1.775482e+06  -5.695008e-01  -6.805512e-01  -4.609977e-01  -4.968265e-01  -1.618077e-01   8.526322e-01   6.548529e-01  -7.146106e-01   2.459663e-01  -1.150425e+00   1.045311e+00   3.658730e+00   1.040736e-01  -4.616624e-01  -8.809293e-01  -8.773267e-01   3.745958e-01  -2.999597e-01   4.684725e-01   8.040807e-01  -3.660432e-01
