     VARIABLES=
              x              y              z      nomin_den    nomin_voidr      fabric_xx      fabric_yy      fabric_zz      fabric_xy      fabric_xz      fabric_yz       sigma_xx       sigma_yy       sigma_zz       sigma_xy       sigma_xz       sigma_yz    sigmaDot_xx    sigmaDot_yy    sigmaDot_zz    sigmaDot_xy    sigmaDot_xz    sigmaDot_yz       Oldro_xx       Oldro_xy       Oldro_xz       Oldro_yx       Oldro_yy       Oldro_yz       Oldro_zx       Oldro_zy       Oldro_zz       Trues_xx       Trues_xy       Trues_xz       Trues_yx       Trues_yy       Trues_yz       Trues_zx       Trues_zy       Trues_zz           F_xX           F_xY           F_xZ           F_yX           F_yY           F_yZ           F_zX           F_zY           F_zZ           R_xX           R_xY           R_xZ           R_yX           R_yY           R_yZ           R_zX           R_zY           R_zZ           U_xX           U_yY           U_zZ           U_xY           U_xZ           U_yZ       Green_xx       Green_yy       Green_zz       Green_xy       Green_xz       Green_yz      Green_vol      Green_shr       Euler_xx       Euler_yy       Euler_zz       Euler_xy       Euler_xz       Euler_yz      Euler_vol      Euler_shr           l_xx           l_xy           l_xz           l_yx           l_yy           l_yz           l_zx           l_zy           l_zz           d_xx           d_yy           d_zz           d_xy           d_xz           d_yz           w_xy           w_xz           w_yz     norm_sigma  norm_sigmaDot     norm_Oldro     norm_Trues         norm_F         norm_U         norm_l         norm_d         norm_w              p              q        sigma_1        sigma_2        sigma_3     sigma_1_v1     sigma_1_v2     sigma_1_v3     sigma_2_v1     sigma_2_v2     sigma_2_v3     sigma_3_v1     sigma_3_v2     sigma_3_v3     sigmaDot_1     sigmaDot_2     sigmaDot_3  sigmaDot_1_v1  sigmaDot_1_v2  sigmaDot_1_v3  sigmaDot_2_v1  sigmaDot_2_v2  sigmaDot_2_v3  sigmaDot_3_v1  sigmaDot_3_v2  sigmaDot_3_v3            d_1            d_2            d_3         d_1_v1         d_1_v2         d_1_v3         d_2_v1         d_2_v2         d_2_v3         d_3_v1         d_3_v2         d_3_v3
ZONE I=2, J=2, K=2, DATAPACKING=POINT, STRANDID=5, SOLUTIONTIME=26
   5.064936e-03   5.064938e-03   4.835329e-03   1.569417e+03   6.885250e-01   3.061556e-01   3.459873e-01   2.959090e-01  -3.631062e-02  -3.220971e-02   1.411322e-02  -4.525254e+00  -4.814469e+00  -5.168938e+00   2.820497e-01   1.188904e+00   1.191819e+00  -3.598120e+04  -1.129978e+04  -2.402310e+04   1.842791e+04  -1.215567e+05   2.302454e+05  -3.598129e+04   4.813884e+04  -1.946176e+05  -1.128291e+04  -1.130025e+04   6.678264e+04  -4.849556e+04   3.937083e+05  -2.402284e+04  -3.598120e+04   4.813884e+04  -1.946176e+05  -1.128292e+04  -1.130015e+04   6.678262e+04  -4.849559e+04   3.937083e+05  -2.402273e+04   1.030383e+00  -1.105011e-02  -1.346460e-04   2.036110e-02   9.949363e-01   4.067325e-03  -2.724854e-03  -2.590785e-02   1.006425e+00   9.998790e-01  -1.551865e-02   1.037816e-03   1.550136e-02   9.997675e-01   1.499123e-02  -1.270218e-03  -1.497333e-02   9.998871e-01   1.030578e+00   9.952643e-01   1.006372e+00   4.407001e-03  -1.349960e-03  -1.100107e-02   3.105598e-02  -4.654235e-03   6.454210e-03   4.471370e-03  -1.399142e-03  -1.101305e-02   1.095199e-02   2.522473e-02   2.905963e-02  -5.167737e-03   6.459321e-03   4.723400e-03  -1.133170e-03  -1.082227e-02   1.011707e-02   2.432087e-02  -6.485895e-03   1.088199e-02   1.327018e-02  -4.821620e-03  -5.399822e-02  -2.102052e-02   2.977238e-02   3.025696e-02   3.960063e-02  -6.485895e-03  -5.399822e-02   3.960063e-02   3.030186e-03   2.152128e-02   4.618223e-03   7.851805e-03  -8.251097e-03  -2.563874e-02   8.739657e+00   4.518164e+05   4.518164e+05   4.518164e+05   1.750917e+00   1.750917e+00   8.418781e-02   7.425251e-02   3.967559e-02  -4.836220e+00   3.087899e+00  -6.377151e+00  -5.247923e+00  -2.883586e+00   3.576131e-01   4.732006e-01  -8.051050e-01  -7.109000e-01   6.969976e-01   9.389151e-02   6.055858e-01   5.387723e-01   5.856537e-01  -4.133151e+05  -3.834461e+04   3.803556e+05   7.088034e-02  -6.969107e-01   7.136466e-01  -9.923870e-01  -1.215081e-01  -2.009336e-02  -1.007171e-01   7.067894e-01   7.002177e-01  -5.431595e-02  -1.494089e-02   4.837336e-02  -4.588424e-02   9.982019e-01  -3.857072e-02  -9.290023e-01  -2.844592e-02   3.689792e-01   3.672185e-01   5.276262e-02   9.286370e-01
   5.064936e-03   5.064938e-03   1.424617e-02   1.562152e+03   6.963773e-01   2.819107e-01   3.730667e-01   2.974035e-01  -4.110912e-02   3.356952e-02   2.786815e-02  -2.788484e+00  -1.053424e+00  -1.753230e+00   2.215402e-01  -7.003071e-01  -2.306279e-02  -1.022328e+04  -5.447086e+03  -5.870679e+03   2.403480e+04  -1.895573e+04  -5.070831e+03  -1.022287e+04   2.529003e+04  -1.396545e+04   2.277979e+04  -5.447131e+03  -7.808638e+03  -2.394607e+04  -2.332802e+03  -5.870983e+03  -1.022280e+04   2.529003e+04  -1.396543e+04   2.277977e+04  -5.447104e+03  -7.808638e+03  -2.394605e+04  -2.332801e+03  -5.870938e+03   9.384133e-01   1.016989e-01  -2.994281e-01   4.790549e-02   8.536814e-01  -6.334369e-02  -7.467155e-02  -1.025272e-01   1.251445e+00   9.945306e-01   2.406754e-02  -1.016346e-01  -2.201694e-02   9.995317e-01   2.125021e-02   1.020984e-01  -1.889630e-02   9.945948e-01   9.246021e-01   8.576667e-01   1.273767e+00   7.187937e-02  -1.686252e-01  -9.416821e-02  -5.575489e-02  -1.251868e-01   3.298920e-01   7.199375e-02  -1.887346e-01  -1.064170e-01   4.965011e-02   3.868423e-01  -9.865094e-02  -2.096680e-01   1.314654e-01   8.496325e-02  -1.630897e-01  -5.197321e-02  -5.895118e-02   2.984254e-01   1.028980e-01   8.420070e-02  -8.837213e-02  -1.679850e-03  -2.304314e-02   6.117374e-02   4.713803e-02   1.758699e-02  -1.054972e-01   1.028980e-01  -2.304314e-02  -1.054972e-01   4.126042e-02  -2.061705e-02   3.938037e-02   4.294027e-02  -6.775508e-02   2.179338e-02   3.637210e+00   4.649742e+04   4.649748e+04   4.649743e+04   1.816012e+00   1.816012e+00   2.083852e-01   1.720617e-01   1.175548e-01  -1.865046e+00   2.286584e+00  -3.349286e+00  -1.423918e+00  -8.219343e-01  -8.676039e-01   1.745017e-01  -4.656314e-01  -3.263653e-01   5.066567e-01   7.979879e-01  -3.751655e-01  -8.443033e-01   3.826261e-01  -4.001197e+04  -7.978553e+03   2.644948e+04   7.427920e-01  -4.564728e-01   4.897884e-01  -9.827866e-03   7.240364e-01   6.896918e-01   6.694501e-01   5.171111e-01  -5.333223e-01  -1.266487e-01  -1.455148e-02   1.155578e-01   1.536039e-01  -4.039437e-01   9.017956e-01  -2.310399e-01   8.726475e-01   4.302406e-01   9.607426e-01   2.744374e-01  -4.071491e-02
   5.064936e-03   1.493503e-02   4.835329e-03   1.501373e+03   7.650506e-01   3.159242e-01   3.554931e-01   2.779497e-01   4.722574e-02  -1.301031e-02   1.451838e-02  -5.123530e+00  -2.708117e+00  -4.722758e+00  -7.567606e-01   1.284672e+00  -6.392147e-01  -6.405861e+03  -2.995131e+03  -7.375129e+03  -3.404177e+04   3.042034e+04   5.631825e+03  -6.405785e+03  -4.514179e+04   2.396409e+04  -2.294185e+04  -2.995311e+03  -5.689672e+02   3.687700e+04   1.183255e+04  -7.375019e+03  -6.405816e+03  -4.514180e+04   2.396410e+04  -2.294185e+04  -2.995328e+03  -5.689719e+02   3.687701e+04   1.183255e+04  -7.375048e+03   1.016912e+00   9.435786e-03   2.553609e-03   3.044795e-02   9.929221e-01   5.473415e-03   2.173208e-02   1.158631e-02   9.951112e-01   9.999009e-01  -1.044623e-02  -9.440679e-03   1.041745e-02   9.999410e-01  -3.092711e-03   9.472429e-03   2.994057e-03   9.999507e-01   1.017335e+00   9.927996e-01   9.950210e-01   1.988832e-02   1.203650e-02   8.425835e-03   1.775512e-02  -6.941191e-03  -4.858627e-03   2.003980e-02   1.219464e-02   8.494217e-03   1.985102e-03   3.286455e-02   1.549167e-02  -7.615463e-03  -5.061107e-03   1.959859e-02   1.175395e-02   8.533447e-03   9.383678e-04   3.173977e-02   1.499267e-02   1.212868e-03   3.076313e-02  -1.598718e-02  -2.533777e-02  -1.475499e-02   1.932049e-02   3.300680e-03   1.642443e-02   1.499267e-02  -2.533777e-02   1.642443e-02  -7.387153e-03   2.504181e-02  -5.727154e-03   8.600022e-03   5.721321e-03  -9.027835e-03   7.828735e+00   6.886945e+04   6.886967e+04   6.886968e+04   1.735486e+00   1.735486e+00   5.423892e-02   5.065046e-02   1.940081e-02  -4.184802e+00   3.809571e+00  -6.414369e+00  -4.123292e+00  -2.016745e+00   7.728619e-01   1.066841e-01  -6.255421e-01  -4.773561e-01  -5.517624e-01  -6.838782e-01  -4.181095e-01   8.271498e-01  -3.755098e-01  -5.542172e+04   6.312024e+03   3.233357e+04   6.626603e-01   4.285934e-01  -6.141572e-01   8.863999e-02  -8.591773e-01  -5.039418e-01  -7.436561e-01   2.795033e-01  -6.073331e-01  -2.670576e-02  -9.247654e-03   4.203275e-02   1.477632e-01   9.879803e-01   4.539878e-02  -7.057133e-01   7.316492e-02   7.047096e-01   6.929176e-01  -1.361687e-01   7.080419e-01
   5.064936e-03   1.493503e-02   1.424617e-02   1.507912e+03   7.573975e-01   3.086416e-01   3.648839e-01   2.994475e-01   6.704395e-02   1.364980e-02  -1.088411e-02  -4.326864e+00  -4.296818e+00  -8.532545e-01  -2.033278e+00  -5.098605e-01  -7.219790e-01  -2.278752e+04  -2.979819e+04  -2.852561e+04  -4.563644e+04  -1.412139e+04  -1.559461e+04  -2.278731e+04  -7.290108e+04  -9.402534e+03  -1.837154e+04  -2.979823e+04   9.142347e+02  -1.884003e+04  -3.210360e+04  -2.852565e+04  -2.278724e+04  -7.290104e+04  -9.402527e+03  -1.837150e+04  -2.979816e+04   9.142506e+02  -1.884002e+04  -3.210359e+04  -2.852564e+04   1.109419e+00   1.119604e-01  -1.135528e-01   1.085527e-01   9.873928e-01  -5.018860e-02   1.135352e-01  -7.626856e-02   1.060570e+00   9.944673e-01  -5.785368e-04  -1.050447e-01   2.505918e-03   9.998309e-01   1.821714e-02   1.050164e-01  -1.837958e-02   9.943006e-01   1.115476e+00   9.885629e-01   1.065540e+00   1.058058e-01  -1.672976e-03  -6.960726e-02   1.277419e-01  -3.351720e-03   7.011129e-02   1.113680e-01  -5.506819e-03  -7.157872e-02   6.483382e-02   1.707784e-01   8.301005e-02  -3.592791e-02   5.726841e-02   1.008401e-01   9.149738e-03  -5.419862e-02   3.478352e-02   1.510217e-01   2.064454e-02  -1.654742e-03   3.948106e-02   2.050536e-02  -1.737603e-02   2.221588e-02   3.356765e-02  -3.334705e-02  -1.991759e-02   2.064454e-02  -1.737603e-02  -1.991759e-02   9.425310e-03   3.652436e-02  -5.565586e-03  -1.108005e-02   2.956707e-03   2.778146e-02   6.917809e+00   9.668428e+04   9.668413e+04   9.668405e+04   1.840924e+00   1.840924e+00   7.641436e-02   6.350209e-02   4.250457e-02  -3.158979e+00   5.086956e+00  -6.432401e+00  -2.289887e+00  -7.546488e-01   7.045688e-01   6.974374e-01   1.310112e-01   7.006581e-01  -7.129707e-01   2.740674e-02  -1.125216e-01  -7.248409e-02   9.910020e-01  -7.462469e+04  -9.457951e+03   2.971324e+03   4.525955e-01   6.343325e-01   6.267213e-01   8.908421e-01  -3.527502e-01  -2.862998e-01  -3.946679e-02  -6.878877e-01   7.247433e-01  -4.479860e-02  -1.446822e-02   4.261774e-02   4.956371e-01  -3.331441e-01  -8.020965e-01  -9.347945e-02  -9.386079e-01   3.320795e-01   8.634845e-01   8.961140e-02   4.963510e-01
   1.493502e-02   5.064938e-03   4.835329e-03   1.605496e+03   6.505799e-01   4.162714e-01   2.868844e-01   2.468442e-01   1.716981e-02  -4.990402e-04   2.568662e-02  -5.892920e+00  -1.512304e+00  -3.001947e+00  -1.363246e+00  -1.572848e+00  -8.264499e-01  -3.897235e+03  -1.652279e+04  -4.802704e+03  -3.577211e+04  -1.580362e+05   3.496739e+04  -3.897401e+03  -3.646763e+04  -2.423406e+05  -3.507658e+04  -1.652282e+04  -3.464851e+04  -7.373200e+04   1.045831e+05  -4.802814e+03  -3.897210e+03  -3.646758e+04  -2.423406e+05  -3.507653e+04  -1.652278e+04  -3.464849e+04  -7.373194e+04   1.045831e+05  -4.802717e+03   9.989544e-01  -7.389118e-04  -5.612950e-03   3.070462e-02   1.058666e+00   2.708475e-02   2.554817e-02   4.345803e-03   9.690665e-01   9.997612e-01  -1.501293e-02  -1.587895e-02   1.519069e-02   9.998226e-01   1.113378e-02   1.570898e-02  -1.137233e-02   9.998119e-01   9.995836e-01   1.058440e+00   9.692749e-01   1.541140e-02   1.002287e-02   1.614367e-02  -2.472983e-04   6.039698e-02  -3.007254e-02   1.593942e-02   9.991210e-03   1.644462e-02   1.002572e-02   6.054915e-02  -1.625381e-03   5.378634e-02  -3.276577e-02   1.300036e-02   1.028013e-02   1.474167e-02   6.465063e-03   5.673231e-02  -1.542758e-02  -7.271311e-03   1.146418e-02   1.712504e-02  -8.093357e-03  -3.663933e-02  -2.536245e-02   1.374150e-02  -8.785324e-03  -1.542758e-02  -8.093357e-03  -8.785324e-03   4.926864e-03  -6.949136e-03  -1.144891e-02  -1.219817e-02   1.841331e-02  -2.519042e-02   7.494596e+00   2.813805e+05   2.813806e+05   2.813805e+05   1.749330e+00   1.749330e+00   5.507072e-02   2.807096e-02   4.737938e-02  -3.469057e+00   5.604907e+00  -7.115158e+00  -2.353907e+00  -9.381062e-01   8.644950e-01   2.764796e-01   4.197707e-01   4.888818e-01  -2.684347e-01  -8.300225e-01   1.168032e-01  -9.227686e-01   3.672263e-01  -1.223998e+05  -4.034018e+04   1.375173e+05   2.663574e-01  -6.312570e-01   7.284013e-01  -8.315172e-01  -5.326811e-01  -1.575751e-01   4.874760e-01  -5.637069e-01  -6.667846e-01  -2.086338e-02  -1.770535e-02   6.262472e-03  -5.199535e-01  -4.502129e-01  -7.259178e-01  -7.739457e-01   6.079178e-01   1.773249e-01   3.614644e-01   6.540217e-01  -6.645293e-01
   1.493502e-02   5.064938e-03   1.424617e-02   1.420015e+03   8.661775e-01   3.306642e-01   3.835040e-01   2.501175e-01   5.991454e-02   5.588905e-03   1.003479e-03  -2.985883e+00  -2.562759e+00  -2.209992e-01  -1.838707e+00  -4.252488e-02  -1.367676e-01  -1.077724e+04  -3.527839e+04   3.179188e+03  -1.468847e+04   9.451700e+03   8.064150e+03  -1.077754e+04  -3.571680e+04   2.076609e+04   6.339480e+03  -3.527854e+04   1.001029e+03  -1.862845e+03   1.512704e+04   3.179176e+03  -1.077736e+04  -3.571671e+04   2.076610e+04   6.339610e+03  -3.527839e+04   1.001038e+03  -1.862849e+03   1.512704e+04   3.179189e+03   1.084016e+00  -1.423098e-01   1.717821e-03  -4.166025e-02   8.948707e-01  -4.955522e-02  -2.325342e-01   1.245949e-01   9.699065e-01   9.927902e-01  -4.285744e-02   1.119412e-01   5.214336e-02   9.953176e-01  -8.138780e-02  -1.079290e-01   8.663801e-02   9.903763e-01   1.099126e+00   9.075743e-01   9.647979e-01  -1.080696e-01  -1.055596e-01   3.463397e-02   1.154496e-01  -8.171518e-02  -2.841134e-02  -1.102597e-01  -1.108049e-01   3.812773e-02   1.774358e-03   2.199712e-01   4.331185e-02  -1.419981e-01  -2.706473e-02  -8.748281e-02  -1.148729e-01   2.324576e-02  -4.191698e-02   2.004653e-01  -4.083225e-02  -1.553412e-02   1.215994e-02  -1.222616e-02  -2.196326e-02   2.092571e-02   6.584232e-03  -5.108885e-02   3.409559e-03  -4.083225e-02  -2.196326e-02   3.409559e-03  -1.388014e-02   9.372084e-03  -1.508157e-02  -1.653979e-03   2.787852e-03   3.600728e-02   4.755087e+00   5.788978e+04   5.788996e+04   5.788980e+04   1.735121e+00   1.735121e+00   7.610021e-02   5.636646e-02   5.112792e-02  -1.923214e+00   4.593185e+00  -4.974699e+00  -6.183292e-01  -1.766130e-01   7.402352e-01   6.723364e-01   3.960075e-03   6.386554e-01  -7.012872e-01  -3.167263e-01   2.101694e-01  -2.369810e-01   9.485087e-01  -4.191459e+04  -9.383463e+03   8.421612e+03  -2.073765e-01   9.248517e-01  -3.188171e-01  -9.781111e-01  -1.903157e-01   8.413445e-02  -1.713601e-02  -3.292860e-01  -9.440747e-01  -4.821628e-02  -2.545928e-02   1.428962e-02  -8.904583e-01  -4.541409e-01   2.898339e-02  -3.740007e-01   7.666320e-01   5.219184e-01   2.592441e-01  -4.539068e-01   8.525029e-01
   1.493502e-02   1.493503e-02   4.835329e-03   1.532861e+03   7.287930e-01   3.029246e-01   3.139263e-01   3.366375e-01   1.200565e-03   2.019743e-02   5.141898e-02  -1.418435e+00  -2.179264e+00  -1.740923e+00   3.375922e-01  -3.583618e-01  -5.556653e-01  -1.161842e+04  -8.584180e+03  -1.547736e+04   1.693254e+04  -3.261486e+04  -3.714703e+04  -1.161844e+04   1.360386e+04  -5.070566e+04   2.026134e+04  -8.584265e+03  -3.872664e+04  -1.452414e+04  -3.556735e+04  -1.547751e+04  -1.161834e+04   1.360383e+04  -5.070564e+04   2.026132e+04  -8.584100e+03  -3.872661e+04  -1.452411e+04  -3.556729e+04  -1.547738e+04   1.135454e+00  -3.474365e-03  -7.019410e-02   3.357846e-02   8.196456e-01   6.981467e-02  -1.602928e-01  -1.469245e-01   8.640683e-01   9.987356e-01  -2.829252e-02   4.155407e-02   2.269930e-02   9.913338e-01   1.293912e-01  -4.485476e-02  -1.282844e-01   9.907225e-01   1.141971e+00   8.314887e-01   8.621685e-01   2.172567e-02  -1.072782e-01  -3.965085e-02   1.580387e-01  -1.532911e-01  -1.217923e-01   2.356420e-02  -1.079309e-01  -3.474282e-02  -3.901494e-02   2.388362e-01   9.022325e-02  -2.436820e-01  -1.726696e-01   6.340982e-03  -1.244637e-01  -5.940793e-02  -1.087095e-01   2.582042e-01  -9.632264e-03   1.244543e-02   1.263422e-02   2.278677e-03  -2.548585e-02   2.484129e-02  -3.069274e-02   9.205670e-03  -4.057975e-02  -9.632264e-03  -2.548585e-02  -4.057975e-02   7.362053e-03  -9.029259e-03   1.702348e-02   5.083377e-03   2.166348e-02   7.817808e-03   3.306630e+00   8.118258e+04   8.118264e+04   8.118252e+04   1.663103e+00   1.663103e+00   6.597430e-02   5.692168e-02   3.335462e-02  -1.779541e+00   1.631238e+00  -2.668823e+00  -1.876991e+00  -7.928090e-01   2.984622e-03  -8.097472e-01  -5.867713e-01  -7.596273e-01   3.797753e-01  -5.279556e-01   6.503519e-01   4.473032e-01  -6.139726e-01  -4.805890e+04  -2.410048e+04   3.647942e+04   1.020884e-01  -6.942951e-01  -7.124130e-01  -8.828438e-01   2.668018e-01  -3.865276e-01   4.584373e-01   6.684094e-01  -5.857168e-01  -5.463794e-02  -1.459279e-02  -6.467142e-03   2.494434e-01  -5.345351e-01   8.074963e-01  -1.437196e-01   8.041861e-01   5.767403e-01  -9.576652e-01  -2.599171e-01   1.237758e-01
   1.493502e-02   1.493503e-02   1.424617e-02   1.359224e+03   9.496415e-01   3.038550e-01   2.361452e-01   3.171427e-01  -1.412259e-02  -3.315602e-02  -1.765558e-02  -4.159514e-01  -7.920716e-01  -1.004908e-01   1.137520e-01   4.261569e-02  -5.897567e-02   3.212613e+03  -2.226221e+03  -1.396033e+03   1.097428e+04   3.563791e+03  -2.653499e+03   3.212602e+03   8.372580e+03   3.378392e+03   1.357587e+04  -2.226243e+03  -2.712260e+03   3.749219e+03  -2.594718e+03  -1.396038e+03   3.212629e+03   8.372570e+03   3.378388e+03   1.357587e+04  -2.226192e+03  -2.712254e+03   3.749217e+03  -2.594716e+03  -1.396032e+03   1.388004e+00  -1.670722e-01   9.391904e-01  -2.444759e-01   9.073395e-01  -9.451028e-01   1.054583e+00  -1.019819e+00   2.393204e+00   9.990129e-01   4.085930e-02  -1.742821e-02  -4.024808e-02   9.986081e-01   3.408714e-02   1.879673e-02  -3.335204e-02   9.992669e-01   1.416296e+00   9.332631e-01   2.342866e+00  -2.225952e-01   1.021286e+00  -9.852309e-01   1.049235e+00   4.456043e-01   3.251363e+00  -7.646018e-01   2.029244e+00  -1.727538e+00   1.582067e+00   3.627274e+00  -4.116526e-01  -2.619251e+00  -8.441110e-01   1.075233e+00   9.192109e-01  -1.893443e+00  -1.291672e+00   3.045173e+00  -2.432000e-02  -3.791784e-02  -6.956849e-03  -6.046522e-02  -2.587226e-02   4.389700e-02   4.095358e-02   1.316051e-02  -1.477535e-02  -2.432000e-02  -2.587226e-02  -1.477535e-02  -4.919153e-02   1.699837e-02   2.852875e-02   1.127369e-02  -2.395521e-02   1.536824e-02   9.228797e-01   1.764062e+04   1.764056e+04   1.764055e+04   3.534459e+00   3.534459e+00   1.019740e-01   9.232783e-02   4.329276e-02  -4.361713e-01   6.188126e-01  -8.096054e-01  -4.012872e-01  -9.762124e-02   1.995920e-01  -9.787237e-01  -4.757012e-02   9.771835e-01   2.024067e-01  -6.437288e-02  -7.263178e-02   3.363642e-02  -9.967915e-01  -1.479249e+04  -5.994740e+01   1.444279e+04  -6.125517e-01   7.262096e-01   3.120898e-01  -1.340308e-01   2.936881e-01  -9.464581e-01   7.789841e-01   6.215842e-01   8.256472e-02  -8.851101e-02  -2.599863e-03   2.614326e-02  -6.215086e-01  -6.717041e-01   4.031633e-01   4.635174e-01   9.958931e-02   8.804735e-01  -6.315684e-01   7.340951e-01   2.494509e-01
