     VARIABLES=
              x              y              z      nomin_den    nomin_voidr      fabric_xx      fabric_yy      fabric_zz      fabric_xy      fabric_xz      fabric_yz       sigma_xx       sigma_yy       sigma_zz       sigma_xy       sigma_xz       sigma_yz    sigmaDot_xx    sigmaDot_yy    sigmaDot_zz    sigmaDot_xy    sigmaDot_xz    sigmaDot_yz       Oldro_xx       Oldro_xy       Oldro_xz       Oldro_yx       Oldro_yy       Oldro_yz       Oldro_zx       Oldro_zy       Oldro_zz       Trues_xx       Trues_xy       Trues_xz       Trues_yx       Trues_yy       Trues_yz       Trues_zx       Trues_zy       Trues_zz           F_xX           F_xY           F_xZ           F_yX           F_yY           F_yZ           F_zX           F_zY           F_zZ           R_xX           R_xY           R_xZ           R_yX           R_yY           R_yZ           R_zX           R_zY           R_zZ           U_xX           U_yY           U_zZ           U_xY           U_xZ           U_yZ       Green_xx       Green_yy       Green_zz       Green_xy       Green_xz       Green_yz      Green_vol      Green_shr       Euler_xx       Euler_yy       Euler_zz       Euler_xy       Euler_xz       Euler_yz      Euler_vol      Euler_shr           l_xx           l_xy           l_xz           l_yx           l_yy           l_yz           l_zx           l_zy           l_zz           d_xx           d_yy           d_zz           d_xy           d_xz           d_yz           w_xy           w_xz           w_yz     norm_sigma  norm_sigmaDot     norm_Oldro     norm_Trues         norm_F         norm_U         norm_l         norm_d         norm_w              p              q        sigma_1        sigma_2        sigma_3     sigma_1_v1     sigma_1_v2     sigma_1_v3     sigma_2_v1     sigma_2_v2     sigma_2_v3     sigma_3_v1     sigma_3_v2     sigma_3_v3     sigmaDot_1     sigmaDot_2     sigmaDot_3  sigmaDot_1_v1  sigmaDot_1_v2  sigmaDot_1_v3  sigmaDot_2_v1  sigmaDot_2_v2  sigmaDot_2_v3  sigmaDot_3_v1  sigmaDot_3_v2  sigmaDot_3_v3            d_1            d_2            d_3         d_1_v1         d_1_v2         d_1_v3         d_2_v1         d_2_v2         d_2_v3         d_3_v1         d_3_v2         d_3_v3
ZONE I=2, J=2, K=2, DATAPACKING=POINT, STRANDID=5, SOLUTIONTIME=53
   5.131227e-03   5.130040e-03   4.899317e-03   1.582896e+03   6.741463e-01   3.685798e-01   3.129851e-01   3.094260e-01  -2.323925e-02  -5.264212e-02   2.653073e-02  -1.311288e+03  -2.279739e+03  -7.744614e+02   5.878760e+01   3.395212e+02  -3.454131e+02  -3.253896e+05  -5.554689e+05  -8.117865e+04   3.155242e+06  -3.540602e+05   3.745668e+06  -3.254542e+05  -8.438458e+05  -9.865561e+05   7.154342e+06  -5.554735e+05  -6.316066e+05   2.784225e+05   8.122805e+06  -8.118838e+04  -3.254230e+05  -8.438473e+05  -9.865643e+05   7.154341e+06  -5.554193e+05  -6.315983e+05   2.784145e+05   8.122813e+06  -8.116998e+04   1.032601e+00   1.607317e-02   2.300352e-02   7.698695e-03   9.894564e-01  -4.807140e-03   5.084825e-03   5.254091e-03   1.022008e+00   9.999533e-01   4.127431e-03   8.739011e-03  -4.083467e-03   9.999789e-01  -5.042640e-03  -8.759640e-03   5.006719e-03   9.999491e-01   1.032476e+00   9.895282e-01   1.022182e+00   1.198598e-02   1.406965e-02   4.048149e-04   3.317449e-02  -1.034508e-02   2.252658e-02   1.212070e-02   1.445659e-02   4.915043e-04   1.511866e-02   3.407427e-02   3.081579e-02  -1.094554e-02   2.096933e-02   1.137316e-02   1.295274e-02  -1.551370e-04   1.361319e-02   3.211922e-02  -3.059827e-02   2.991512e-02  -2.828669e-02  -5.406304e-02   5.145524e-03  -4.975991e-02  -4.699250e-03  -2.250797e-02   1.696688e-03  -3.059827e-02   5.145524e-03   1.696688e-03  -1.207396e-02  -1.649297e-02  -3.613394e-02   4.198908e-02  -1.179372e-02  -1.362597e-02   2.827127e+03   1.094296e+07   1.094292e+07   1.094292e+07   1.758042e+00   1.758042e+00   9.267261e-02   6.642688e-02   6.461953e-02  -1.455163e+03   1.564242e+03  -2.369692e+03  -1.431886e+03  -5.639107e+02  -1.228683e-01   9.645590e-01   2.335152e-01  -9.108514e-01  -2.030234e-01   3.593483e-01   3.940217e-01  -1.685452e-01   9.035151e-01  -1.106300e+07  -4.949085e+05   1.059587e+07  -4.646162e-01   7.175167e-01  -5.189427e-01  -7.504348e-01  -7.939271e-03   6.608968e-01   4.700845e-01   6.964961e-01   5.421382e-01  -5.200950e-02  -1.145075e-02   3.970419e-02   6.886201e-01   4.858055e-01   5.383264e-01   7.239711e-01  -5.024348e-01  -4.726787e-01  -4.084398e-02  -7.152288e-01   6.976958e-01
   5.131227e-03   5.130040e-03   1.417750e-02   1.566740e+03   6.914104e-01   2.444224e-01   3.645760e-01   3.789534e-01  -1.623830e-02  -2.030894e-02   9.479944e-03  -1.196884e+02  -2.887945e+02  -2.279379e+02   2.162723e+01   4.825034e+01  -1.715859e+01   7.929444e+04   2.258983e+05  -1.283887e+05  -3.161797e+05   5.230834e+05  -1.157369e+06   7.929137e+04  -1.627700e+05   1.227553e+06  -4.695635e+05   2.258841e+05   1.199213e+04  -1.813807e+05  -2.326770e+06  -1.284194e+05   7.930295e+04  -1.627724e+05   1.227548e+06  -4.695653e+05   2.259120e+05   1.199363e+04  -1.813851e+05  -2.326769e+06  -1.283973e+05   1.020492e+00  -5.761675e-02  -2.259000e-01   2.049038e-01   7.445103e-01  -2.749456e-01  -1.700529e-03  -7.918461e-02   1.151202e+00   9.823488e-01  -1.556855e-01  -1.036959e-01   1.458811e-01   9.846069e-01  -9.627063e-02   1.170876e-01   7.944406e-02   9.899390e-01   1.032172e+00   7.357293e-01   1.189513e+00   4.273871e-02  -1.272305e-01  -1.440878e-01   4.169654e-02  -2.180573e-01   2.259456e-01   4.694509e-02  -1.444121e-01  -1.414208e-01   1.652829e-02   3.517921e-01   1.599157e-03  -4.214493e-01   4.744759e-02   1.371652e-01  -5.756799e-02  -2.335765e-01  -1.241342e-01   4.374305e-01  -8.921923e-03   2.274390e-02  -6.089832e-04   2.298095e-02  -1.910904e-02  -6.243163e-02  -1.144178e-02  -1.391307e-02  -6.871845e-02  -8.921923e-03  -1.910904e-02  -6.871845e-02   2.286243e-02  -6.025380e-03  -3.817235e-02  -1.185253e-04   5.416397e-03  -2.425928e-02   3.948510e+02   2.697126e+06   2.697142e+06   2.697141e+06   1.760446e+00   1.760446e+00   1.021516e-01   9.591262e-02   3.515292e-02  -2.121403e+02   1.737907e+02  -2.998657e+02  -2.338209e+02  -1.027343e+02  -1.840580e-01   9.164526e-01   3.552990e-01  -2.799813e-01  -3.953831e-01   8.748043e-01   9.421959e-01   6.153763e-02   3.293630e-01  -2.368625e+06   1.417530e+05   2.403676e+06   1.823996e-01   6.745363e-01   7.153539e-01   9.784781e-01  -5.312776e-02  -1.993942e-01   9.649349e-02  -7.363275e-01   6.697095e-01  -8.985617e-02  -2.691299e-02   2.001974e-02   7.442138e-02  -4.920529e-01  -8.673785e-01  -7.769789e-01   5.166178e-01  -3.597358e-01   6.251122e-01   7.007068e-01  -3.438673e-01
   5.131227e-03   1.486674e-02   4.899317e-03   1.577093e+03   6.803069e-01   3.269573e-01   3.230633e-01   3.499794e-01   6.497424e-03  -2.201267e-02   5.958946e-03  -7.735523e+02  -1.371612e+03  -1.057094e+03  -8.933813e+01   1.398522e+01  -6.266766e+01   3.908434e+07   2.076166e+06   4.996187e+06  -1.886996e+07  -1.220327e+08   3.216874e+07   3.908438e+07  -2.153892e+07  -2.436114e+08  -1.620104e+07   2.076150e+06   9.680887e+06  -4.539826e+05   5.465647e+07   4.996135e+06   3.908438e+07  -2.153892e+07  -2.436114e+08  -1.620104e+07   2.076153e+06   9.680887e+06  -4.539827e+05   5.465647e+07   4.996137e+06   1.001013e+00   2.981157e-02   6.033286e-03   9.067009e-03   1.013948e+00   6.332798e-02   3.658836e-02   5.674121e-02   1.016807e+00   9.998217e-01   1.081922e-02  -1.547578e-02  -1.076492e-02   9.999356e-01   3.588089e-03   1.551360e-02  -3.420854e-03   9.998738e-01   1.001304e+00   1.014011e+00   1.016812e+00   1.977144e-02   2.112482e-02   5.991083e-02   1.723829e-03   1.609953e-02   1.897122e-02   2.055565e-02   2.190844e-02   6.104299e-02   1.226486e-02   7.928142e-02  -5.857214e-05   8.166631e-03   1.095238e-02   1.692707e-02   1.941249e-02   5.717874e-02   6.353478e-03   7.271455e-02   2.803382e-02  -3.314694e-02   3.836734e-02   2.892930e-02  -7.800600e-03   1.916448e-03  -3.166784e-02  -3.991163e-02  -2.250431e-02   2.803382e-02  -7.800600e-03  -2.250431e-02  -2.108820e-03   3.349749e-03  -1.899759e-02  -3.103812e-02   3.501759e-02   2.091404e-02   1.903534e+03   2.543836e+08   2.543836e+08   2.543836e+08   1.753165e+00   1.753165e+00   8.579236e-02   4.589489e-02   7.248439e-02  -1.067419e+03   5.585098e+02  -1.394016e+03  -1.058972e+03  -7.492705e+02   1.391659e-01   9.788759e-01   1.497827e-01   1.951530e-01   1.211784e-01  -9.732580e-01   9.708492e-01  -1.646749e-01   1.741667e-01  -5.254991e+07   3.479482e+07   6.391179e+07  -1.239095e-01  -7.199767e-01   6.828469e-01  -8.895328e-01  -2.243682e-01  -3.979829e-01   4.397476e-01  -6.567286e-01  -6.126415e-01  -3.556199e-02   4.654958e-03   2.863595e-02  -2.482329e-02   5.632848e-01   8.258898e-01  -1.531629e-01  -8.185336e-01   5.536641e-01   9.878891e-01  -1.127520e-01   1.065931e-01
   5.131227e-03   1.486674e-02   1.417750e-02   1.571792e+03   6.859736e-01   3.249305e-01   3.197279e-01   3.444720e-01   3.285872e-02   1.779450e-03   1.984994e-02  -1.211210e+03  -9.728678e+02  -1.699918e+03  -2.997438e+02  -2.945715e+02  -9.230722e+01  -3.136219e+07  -1.071771e+07   4.615093e+07   7.295712e+07  -1.711027e+08   5.367270e+08  -3.136219e+07   2.970775e+07  -3.201908e+08   1.162065e+08  -1.071772e+07   1.318717e+06  -2.201439e+07   1.072135e+09   4.615088e+07  -3.136216e+07   2.970776e+07  -3.201908e+08   1.162065e+08  -1.071770e+07   1.318723e+06  -2.201439e+07   1.072135e+09   4.615093e+07   9.787602e-01   5.775850e-02  -1.986133e-01   1.363418e-01   9.703398e-01   9.689701e-02   3.554615e-01   1.760707e-02   1.263148e+00   9.701222e-01  -2.498566e-02  -2.413266e-01   3.565589e-02   9.985653e-01   3.994900e-02   2.399823e-01  -4.736013e-02   9.696213e-01   1.039683e+00   9.666707e-01   1.276577e+00   9.485652e-02   1.139088e-01   4.189763e-02   5.145676e-02  -2.739726e-02   3.221892e-01   9.754412e-02   1.339083e-01   5.239587e-02   1.154162e-01   2.916903e-01  -1.634202e-02  -4.144856e-02   2.026312e-01   8.680500e-02   1.992396e-02   5.414623e-02   4.828020e-02   1.962639e-01  -1.421049e-03   9.671531e-04   2.916936e-03  -9.452258e-03  -4.546775e-03   6.182274e-03   4.029495e-02   1.291738e-02  -2.158045e-02  -1.421049e-03  -4.546775e-03  -2.158045e-02  -4.242553e-03   2.160594e-02   9.549825e-03   5.209706e-03  -1.868901e-02  -3.367552e-03   2.389180e+03   1.126986e+09   1.126986e+09   1.126986e+09   1.921587e+00   1.921587e+00   4.915242e-02   4.050233e-02   2.784818e-02  -1.294665e+03   9.417345e+02  -1.825249e+03  -1.320031e+03  -7.387157e+02   4.385054e-01   1.145708e-01   8.913959e-01  -6.733490e-01  -6.150305e-01   4.102910e-01   5.952430e-01  -7.801353e-01  -1.925481e-01  -1.064229e+09  -2.573388e+07   1.094034e+09   9.522172e-02  -7.151741e-01   6.924297e-01  -9.937555e-01  -2.765286e-02   1.080984e-01  -5.816148e-02  -6.983991e-01  -7.133414e-01  -3.849254e-02  -1.559055e-03   1.250332e-02  -5.063474e-01  -2.915892e-01   8.115344e-01  -2.458062e-01   9.508573e-01   1.882808e-01  -8.265541e-01  -1.041447e-01  -5.531385e-01
   1.486713e-02   5.130040e-03   4.899317e-03   1.713645e+03   5.464115e-01   3.944340e-01   3.577429e-01   2.381143e-01  -6.138897e-03   6.433740e-03  -2.641473e-02  -1.614237e+03  -9.973274e+02  -3.539157e+02  -1.098759e+02  -8.932606e+01   3.615176e+01   8.994152e+04   1.833079e+04  -2.544173e+05   9.215667e+05  -5.518323e+05  -4.137701e+05   8.989770e+04   5.607269e+05  -5.760215e+05   1.282320e+06   1.831820e+04   1.319077e+05  -5.276784e+05  -9.595065e+05  -2.544109e+05   8.991125e+04   5.607280e+05  -5.760207e+05   1.282321e+06   1.832657e+04   1.319074e+05  -5.276776e+05  -9.595068e+05  -2.544079e+05   1.115710e+00  -6.173722e-01   3.097578e-01  -2.033040e-01   1.882825e+00  -4.091452e-01   1.656041e-03  -6.984794e-02   8.744552e-01   9.847953e-01  -1.256574e-01   1.199517e-01   1.383012e-01   9.849526e-01  -1.036397e-01  -1.051237e-01   1.186533e-01   9.873553e-01   1.070455e+00   1.923783e+00   9.429576e-01  -3.402456e-01   1.565368e-01  -3.381550e-01   1.430723e-01   1.465529e+00   1.401077e-02  -5.358551e-01   2.151145e-01  -5.113319e-01   5.408708e-01   1.285968e+00   4.124834e-02   2.877946e-01  -2.213772e-01  -1.752539e-01   7.677526e-02  -6.308790e-02   3.588860e-02   3.749204e-01  -1.450223e-02   1.676999e-02  -3.825653e-03  -3.475588e-02  -3.273027e-03  -2.183555e-02  -8.208952e-03  -1.743050e-02   9.381576e-03  -1.450223e-02  -3.273027e-03   9.381576e-03  -8.992947e-03  -6.017303e-03  -1.963303e-02   2.576293e-02   2.191649e-03  -2.202522e-03   1.941315e+03   1.892163e+06   1.892141e+06   1.892142e+06   2.499045e+00   2.499045e+00   5.158373e-02   3.625072e-02   3.669832e-02  -9.884932e+02   1.116939e+03  -1.634473e+03  -9.862575e+02  -3.447489e+02   9.869144e-01   1.491787e-01   6.120266e-02   1.439666e-01  -9.861617e-01   8.221193e-02  -7.261999e-02   7.232500e-02   9.947338e-01  -1.372308e+06  -6.369470e+05   1.863110e+06   5.162073e-01  -7.550015e-01  -4.043547e-01  -6.036575e-01   1.417994e-02  -7.971177e-01   6.075588e-01   6.555697e-01  -4.484425e-01  -2.695957e-02  -5.121051e-03   2.368694e-02  -6.555653e-01  -6.136551e-01  -4.400699e-01  -7.550402e-01   5.232674e-01   3.951020e-01   1.218214e-02  -5.912856e-01   8.063702e-01
   1.486713e-02   5.130040e-03   1.417750e-02   1.473611e+03   7.983034e-01   3.572047e-01   3.573341e-01   2.711754e-01   1.676661e-02  -8.091923e-03  -4.582940e-04  -1.842937e+02  -1.719931e+02  -8.845401e+01  -4.772782e+01  -8.074982e-01   6.298066e+00   4.090185e+05  -4.914634e+03   4.167705e+04   4.399934e+05  -7.674395e+05  -4.015198e+05   4.090009e+05  -4.348532e+04  -1.416818e+06   9.234638e+05  -4.902859e+03  -1.730901e+05  -1.180759e+05  -6.299438e+05   4.166913e+04   4.090101e+05  -4.348296e+04  -1.416818e+06   9.234662e+05  -4.894256e+03  -1.730902e+05  -1.180759e+05  -6.299443e+05   4.167355e+04   1.248834e+00  -3.808675e-01  -4.966004e-01  -1.541169e-01   1.133914e+00   3.770244e-01  -6.759529e-01   3.454488e-03   1.217030e+00   9.831850e-01  -1.599747e-01   8.806401e-02   1.386661e-01   9.678205e-01   2.099885e-01  -1.188230e-01  -1.942461e-01   9.737297e-01   1.286783e+00   1.157684e+00   1.220497e+00  -2.176382e-01  -5.805808e-01   2.079321e-01   5.201255e-01   2.154170e-01   4.349610e-01  -3.263654e-01  -7.504662e-01   3.104283e-01   3.901678e-01   1.026837e+00  -1.667488e-01   5.060291e-02  -8.164078e-02  -2.009083e-01  -4.400112e-01  -1.883489e-02  -6.592889e-02   5.730902e-01  -3.829434e-02  -3.697552e-02   2.927212e-02   1.471490e-02   3.142700e-02   3.495476e-02  -6.056652e-02   1.515266e-02  -4.315044e-02  -3.829434e-02   3.142700e-02  -4.315044e-02  -1.113031e-02  -1.564720e-02   2.505371e-02  -2.584521e-02   4.491932e-02   9.901048e-03   2.757253e+02   1.863284e+06   1.863283e+06   1.863287e+06   2.311062e+00   2.311062e+00   1.089788e-01   7.942850e-02   7.461569e-02  -1.482469e+02   1.242322e+02  -2.271512e+02  -1.305924e+02  -8.699725e+01   7.476916e-01   6.627381e-01  -4.165846e-02   6.592061e-01  -7.332195e-01   1.668426e-01  -8.002818e-02   1.522084e-01   9.851031e-01  -9.443622e+05   4.772309e+04   1.342420e+06   4.831097e-01  -7.629392e-01  -4.295682e-01  -5.556113e-01   1.120431e-01  -8.238583e-01   6.766839e-01   6.366869e-01  -3.697685e-01  -5.849378e-02  -3.352073e-02   4.199673e-02   5.474061e-01  -1.610518e-01   8.212240e-01  -8.151474e-01  -3.247292e-01   4.796724e-01   1.894232e-01  -9.319942e-01  -3.090397e-01
   1.486713e-02   1.486674e-02   4.899317e-03   1.585683e+03   6.712042e-01   3.411627e-01   3.671779e-01   2.802958e-01   1.263095e-02  -8.093243e-03   2.867706e-02  -5.501657e+02  -7.782192e+02  -3.203199e+02   1.268650e+02   4.894022e+00  -8.366160e+01   1.955781e+05  -1.953527e+05   3.369275e+05  -1.368259e+06  -1.281086e+06   1.634857e+06   1.955867e+05   2.040845e+05  -1.310572e+06  -2.940640e+06  -1.952980e+05  -4.900623e+05  -1.251611e+06   3.759809e+06   3.369006e+05   1.955917e+05   2.040833e+05  -1.310572e+06  -2.940641e+06  -1.952909e+05  -4.900615e+05  -1.251612e+06   3.759810e+06   3.369035e+05   8.654321e-01   8.020409e-02  -1.124555e-01  -3.701583e-02   8.536413e-01   2.223020e-01   1.882675e-01  -1.127456e-01   9.300068e-01   9.830672e-01   9.070735e-02  -1.592202e-01  -5.940049e-02   9.797155e-01   1.913873e-01   1.733507e-01  -1.786889e-01   9.685142e-01   8.856130e-01   8.637471e-01   9.611758e-01   8.594759e-03   3.746117e-02   4.141028e-02  -1.071062e-01  -1.260761e-01  -3.651146e-02   8.293303e-03   3.476939e-02   3.794627e-02  -8.989793e-02   8.120064e-02  -1.533004e-01  -1.512888e-01  -5.782115e-02   4.970408e-03   3.471463e-02   7.357856e-02  -1.208035e-01   1.132531e-01   4.634149e-03  -1.399652e-02   6.216435e-03  -7.191948e-03   3.122783e-02   2.549098e-02  -9.044272e-03   1.069261e-02  -4.493536e-02   4.634149e-03   3.122783e-02  -4.493536e-02  -1.059423e-02  -1.413919e-03   1.809179e-02  -3.402286e-03   7.630354e-03   7.399183e-03   1.028201e+03   5.151617e+06   5.151637e+06   5.151638e+06   1.568634e+00   1.568634e+00   6.440521e-02   6.244149e-02   1.578263e-02  -5.495683e+02   4.738404e+02  -8.450295e+02  -4.986288e+02  -3.050464e+02   3.881739e-01  -9.092288e-01  -1.504127e-01   9.197388e-01   3.718726e-01   1.256634e-01   5.832246e-02   1.871196e-01  -9.806043e-01  -4.203285e+06  -9.635211e+05   5.503959e+06  -3.593376e-01  -7.650085e-01   5.344516e-01  -7.918175e-01  -5.314036e-02  -6.084416e-01   4.938640e-01  -6.418240e-01  -5.866518e-01  -4.903170e-02   1.317729e-03   3.864059e-02  -1.816976e-02  -2.221441e-01   9.748445e-01  -9.541315e-01  -2.875624e-01  -8.331239e-02   2.988360e-01  -9.316436e-01  -2.067297e-01
   1.486713e-02   1.486674e-02   1.417750e-02   1.497831e+03   7.692252e-01   4.210339e-01   2.736443e-01   2.891927e-01   5.124222e-03   3.560871e-03  -2.437968e-02  -6.926357e+02  -1.531757e+02  -2.557824e+02  -9.926237e+00  -1.687984e+02  -2.675522e+00   1.914148e+05   1.624579e+06  -3.998694e+05   5.322867e+06   1.150353e+07  -4.272967e+06   1.913432e+05   1.963700e+07   2.156333e+07  -8.991319e+06   1.624567e+06  -1.012428e+06   1.443792e+06  -7.533524e+06  -3.998423e+05   1.913970e+05   1.963700e+07   2.156335e+07  -8.991318e+06   1.624579e+06  -1.012428e+06   1.443805e+06  -7.533523e+06  -3.998225e+05   8.805651e-01   1.419936e-01   6.369566e-01  -4.387983e-03   5.748196e-01   1.027256e-01  -1.352681e-02  -8.556219e-02   8.762827e-01   9.336463e-01   9.434028e-02   3.455497e-01  -1.392561e-01   9.844040e-01   1.075013e-01  -3.300188e-01  -1.484881e-01   9.322226e-01   8.272115e-01   5.919554e-01   1.048034e+00   8.076178e-02   2.911973e-01   3.109666e-02  -1.122015e-01  -3.210497e-01   9.206886e-02   6.183485e-02   2.742888e-01   3.725790e-02  -1.137274e-01   4.051577e-01  -1.294599e-01  -1.048190e+00  -4.322915e-01   2.136772e-01   4.223149e-01  -6.553361e-02  -5.366471e-01   7.724301e-01  -6.444669e-02   2.704697e-02   5.079021e-02  -3.314424e-02  -3.675592e-02  -3.310489e-02   4.419206e-02   3.073763e-02   2.345383e-02  -6.444669e-02  -3.675592e-02   2.345383e-02  -3.048637e-03   4.749114e-02  -1.183628e-03   3.009561e-02   3.299076e-03  -3.192126e-02   7.911466e+02   3.152984e+07   3.152986e+07   3.152987e+07   1.522378e+00   1.522378e+00   1.202408e-01   1.028915e-01   6.221891e-02  -3.671980e+02   5.753945e+02  -7.498262e+02  -1.994705e+02  -1.522971e+02   9.466429e-01   1.677558e-02   3.218476e-01   3.214084e-01  -1.227245e-01  -9.389544e-01  -2.374709e-02  -9.922990e-01   1.215681e-01  -1.023418e+07  -1.577406e+06   1.322771e+07   5.429265e-01   7.032386e-01   4.590057e-01  -6.429628e-01  -3.506698e-03   7.658894e-01   5.402126e-01  -7.109453e-01   4.502524e-01  -8.531460e-02  -3.671067e-02   4.427649e-02   9.155962e-01   4.775157e-02  -3.992536e-01   3.236670e-02  -9.984539e-01  -4.519159e-02   4.007942e-01  -2.845473e-02   9.157261e-01
