     VARIABLES=
              x              y              z      nomin_den    nomin_voidr      fabric_xx      fabric_yy      fabric_zz      fabric_xy      fabric_xz      fabric_yz       sigma_xx       sigma_yy       sigma_zz       sigma_xy       sigma_xz       sigma_yz    sigmaDot_xx    sigmaDot_yy    sigmaDot_zz    sigmaDot_xy    sigmaDot_xz    sigmaDot_yz       Oldro_xx       Oldro_xy       Oldro_xz       Oldro_yx       Oldro_yy       Oldro_yz       Oldro_zx       Oldro_zy       Oldro_zz       Trues_xx       Trues_xy       Trues_xz       Trues_yx       Trues_yy       Trues_yz       Trues_zx       Trues_zy       Trues_zz           F_xX           F_xY           F_xZ           F_yX           F_yY           F_yZ           F_zX           F_zY           F_zZ           R_xX           R_xY           R_xZ           R_yX           R_yY           R_yZ           R_zX           R_zY           R_zZ           U_xX           U_yY           U_zZ           U_xY           U_xZ           U_yZ       Green_xx       Green_yy       Green_zz       Green_xy       Green_xz       Green_yz      Green_vol      Green_shr       Euler_xx       Euler_yy       Euler_zz       Euler_xy       Euler_xz       Euler_yz      Euler_vol      Euler_shr           l_xx           l_xy           l_xz           l_yx           l_yy           l_yz           l_zx           l_zy           l_zz           d_xx           d_yy           d_zz           d_xy           d_xz           d_yz           w_xy           w_xz           w_yz     norm_sigma  norm_sigmaDot     norm_Oldro     norm_Trues         norm_F         norm_U         norm_l         norm_d         norm_w              p              q        sigma_1        sigma_2        sigma_3     sigma_1_v1     sigma_1_v2     sigma_1_v3     sigma_2_v1     sigma_2_v2     sigma_2_v3     sigma_3_v1     sigma_3_v2     sigma_3_v3     sigmaDot_1     sigmaDot_2     sigmaDot_3  sigmaDot_1_v1  sigmaDot_1_v2  sigmaDot_1_v3  sigmaDot_2_v1  sigmaDot_2_v2  sigmaDot_2_v3  sigmaDot_3_v1  sigmaDot_3_v2  sigmaDot_3_v3            d_1            d_2            d_3         d_1_v1         d_1_v2         d_1_v3         d_2_v1         d_2_v2         d_2_v3         d_3_v1         d_3_v2         d_3_v3
ZONE I=2, J=2, K=2, DATAPACKING=POINT, STRANDID=5, SOLUTIONTIME=6
   5.015000e-03   5.015000e-03   4.785373e-03   1.646895e+03   6.090888e-01   3.659199e-01   2.862438e-01   3.023818e-01  -9.648946e-03   2.478937e-02   4.020633e-03  -2.311215e+00  -3.411932e+00  -1.951832e+00   4.371315e-01   2.091086e-01   6.957127e-01   9.467719e+04  -1.179503e+04  -8.868269e+02   1.197282e+05  -9.481356e+04   9.086098e+03   9.467715e+04   2.290706e+04  -2.121842e+05   2.165495e+05  -1.179497e+04   3.331204e+04   2.255707e+04  -1.513990e+04  -8.868792e+02   9.467718e+04   2.290706e+04  -2.121842e+05   2.165495e+05  -1.179493e+04   3.331204e+04   2.255707e+04  -1.513991e+04  -8.868549e+02   9.964655e-01  -2.784285e-04  -4.851730e-03   4.369077e-03   1.001136e+00  -6.634490e-04  -4.046038e-03  -7.413704e-03   9.896658e-01   9.999972e-01  -2.334220e-03  -4.178657e-04   2.335626e-03   9.999915e-01   3.395852e-03   4.099355e-04  -3.396818e-03   9.999941e-01   9.964713e-01   1.001154e+00   9.896598e-01   2.056813e-03  -4.447567e-03  -4.013833e-03  -3.510494e-03   1.164658e-03  -1.026880e-02   2.063297e-03  -4.420853e-03  -3.999971e-03  -4.204879e-03   9.855187e-03  -3.589819e-03   1.102925e-03  -1.053416e-02   2.012452e-03  -4.523734e-03  -4.105623e-03  -4.340353e-03   1.004312e-02  -5.146691e-03   1.218934e-02  -7.288027e-03   4.854803e-03   8.406877e-03   7.685515e-04   7.222866e-03  -8.541115e-03  -1.566544e-02  -5.146691e-03   8.406877e-03  -1.566544e-02   8.522073e-03  -3.258085e-05  -3.886282e-03   3.667270e-03  -7.255446e-03   4.654833e-03   4.737098e+00   3.215462e+05   3.215462e+05   3.215462e+05   1.724752e+00   1.724752e+00   2.633526e-02   2.276027e-02   1.324823e-02  -2.558326e+00   2.397315e+00  -4.027686e+00  -2.368113e+00  -1.279181e+00  -2.773485e-01   8.801402e-01  -3.852675e-01  -8.680983e-01  -5.774101e-02   4.930226e-01  -4.116833e-01  -4.711891e-01  -7.800626e-01  -1.851800e+05   2.469104e+03   2.647062e+05   6.130169e-01  -7.777596e-01  -1.389257e-01   6.070638e-02  -1.289516e-01   9.897910e-01   7.877341e-01   6.151923e-01   3.183456e-02  -1.647306e-02  -8.883853e-03   1.295166e-02   1.494892e-01  -2.023806e-01  -9.678301e-01  -8.937199e-01   3.910803e-01  -2.198201e-01   4.229866e-01   8.978298e-01  -1.224093e-01
   5.015000e-03   5.015000e-03   1.429612e-02   1.376598e+03   9.250355e-01   2.648175e-01   4.238700e-01   1.574663e-01  -1.428692e-01   6.861149e-02  -2.193926e-02  -2.218974e+00  -2.023688e-01  -1.272626e+00  -3.618241e-01  -1.759062e+00  -6.716208e-02   5.656505e+04   1.184876e+05   1.806309e+04  -5.567813e+05  -1.534096e+06  -5.444607e+04   5.656416e+04   3.868893e+05  -3.058008e+06  -1.500452e+06   1.184876e+05   3.847944e+04  -1.018504e+04  -1.473716e+05   1.806318e+04   5.656419e+04   3.868893e+05  -3.058008e+06  -1.500452e+06   1.184876e+05   3.847944e+04  -1.018503e+04  -1.473716e+05   1.806320e+04   9.712337e-01   3.257597e-03  -2.884253e-02   5.804512e-03   1.008186e+00  -4.687427e-03  -2.205517e-02  -1.846599e-02   1.004590e+00   9.999930e-01  -1.383339e-03  -3.463826e-03   1.407105e-03   9.999754e-01   6.868357e-03   3.454239e-03  -6.873183e-03   9.999704e-01   9.711589e-01   1.008284e+00   1.004628e+00   4.612413e-03  -2.537883e-02  -1.155214e-02  -2.809252e-02   8.395810e-03   5.027251e-03   4.711594e-03  -2.509822e-02  -1.168525e-02  -4.889820e-03   3.992118e-02  -3.103607e-02   7.818312e-03   3.383221e-03   4.121662e-03  -2.643211e-02  -1.122318e-02  -6.611513e-03   4.153619e-02  -6.253273e-02  -2.923049e-02  -1.683106e-01   1.008408e-02   1.365763e-02  -1.553414e-02   1.018622e-03  -2.839963e-02   3.535959e-02  -6.253273e-02   1.365763e-02   3.535959e-02  -9.573205e-03  -8.364599e-02  -2.196689e-02  -1.965728e-02  -8.466462e-02   6.432746e-03   3.745994e+00   3.434140e+06   3.434141e+06   3.434141e+06   1.723561e+00   1.723561e+00   1.888932e-01   1.431393e-01   1.232549e-01  -1.231323e+00   2.993900e+00  -3.176809e+00  -6.447497e-01   1.275893e-01  -8.218288e-01  -2.284145e-01  -5.219428e-01  -3.854780e-01  -4.516636e-01   8.046159e-01   4.195285e-01  -8.624539e-01  -2.831414e-01  -1.421730e+06   2.042066e+04   1.594425e+06   7.105126e-01   6.995002e-01   7.662413e-02   9.833428e-02   9.123397e-03  -9.951116e-01   6.967799e-01  -7.145741e-01   6.230256e-02  -1.134352e-01   1.370145e-02   8.621824e-02  -8.520552e-01  -1.508181e-01  -5.012542e-01   2.290027e-01  -9.684935e-01  -9.786773e-02  -4.707012e-01  -1.981773e-01   8.597477e-01
   5.015000e-03   1.498500e-02   4.785373e-03   1.404310e+03   8.870474e-01   3.444315e-01   3.125815e-01   2.968332e-01   1.836850e-02  -2.001027e-02   1.893139e-03  -6.485832e+00  -4.937475e+00  -3.699517e+00  -2.087252e+00   2.173510e+00  -1.799684e-01  -3.140522e+04  -1.495900e+04  -2.135416e+04   4.612611e+04  -4.750328e+04   3.624529e+03  -3.140513e+04  -4.703251e+04  -1.008303e+05   1.392847e+05  -1.495920e+04  -7.446171e+03   5.823855e+03   1.469517e+04  -2.135419e+04  -3.140507e+04  -4.703250e+04  -1.008303e+05   1.392847e+05  -1.495915e+04  -7.446171e+03   5.823832e+03   1.469517e+04  -2.135416e+04   1.000750e+00   3.228681e-03   3.211890e-03   8.487387e-03   9.928489e-01   2.246726e-03  -2.092664e-03  -4.936573e-04   9.960321e-01   9.999930e-01  -2.640373e-03   2.651864e-03   2.636739e-03   9.999956e-01   1.372783e-03  -2.655477e-03  -1.365781e-03   9.999955e-01   1.000771e+00   9.928367e-01   9.960393e-01   5.847853e-03   5.728509e-04   8.778734e-04   7.887800e-04  -7.120203e-03  -3.952339e-03   5.829414e-03   5.745042e-04   8.746656e-04  -3.427921e-03   8.239857e-03   6.898917e-04  -7.260829e-03  -3.991423e-03   5.928290e-03   5.449558e-04   8.779306e-04  -3.520787e-03   8.341221e-03   1.442681e-02  -1.895549e-03   2.070723e-02   4.522370e-03  -2.189126e-02   5.535227e-03   3.282588e-03  -9.182774e-03  -2.244377e-03   1.442681e-02  -2.189126e-02  -2.244377e-03   1.313411e-03   1.199491e-02  -1.823773e-03  -3.208959e-03   8.712322e-03   7.359001e-03   9.927373e+00   1.837129e+05   1.837129e+05   1.837129e+05   1.726103e+00   1.726103e+00   3.565066e-02   3.146833e-02   1.675451e-02  -5.040941e+00   6.197509e+00  -8.759274e+00  -4.741755e+00  -1.621794e+00   8.186044e-01   4.555902e-01  -3.497491e-01   1.612445e-01  -7.667427e-01  -6.213741e-01  -5.512595e-01   4.522645e-01  -7.011204e-01  -1.629518e+05  -2.266235e+04   1.178957e+05  -7.255229e-01   6.869485e-01  -4.145227e-02   1.021781e-01   4.795873e-02  -9.936094e-01   6.805705e-01   7.251218e-01   1.049862e-01  -2.225390e-02  -8.155390e-03   2.070046e-02  -8.055808e-02   9.871140e-01   1.382621e-01  -4.557995e-01  -1.598421e-01   8.756125e-01   8.864295e-01   7.517862e-03   4.628026e-01
   5.015000e-03   1.498500e-02   1.429612e-02   1.500596e+03   7.659655e-01   3.272109e-01   3.199326e-01   1.710382e-01   9.455127e-02  -2.290119e-02  -2.234742e-03  -3.421196e+00  -4.047192e+00  -1.420592e-01  -2.168820e+00  -2.765301e-01  -6.265673e-01  -1.711855e+04  -2.300953e+04  -4.428640e+03  -5.805698e+04  -5.761170e+03  -4.645942e+03  -1.711848e+04  -5.541399e+04  -5.288990e+03  -6.069967e+04  -2.300950e+04   1.426532e+03  -6.233144e+03  -1.071830e+04  -4.428621e+03  -1.711858e+04  -5.541406e+04  -5.288999e+03  -6.069972e+04  -2.300962e+04   1.426507e+03  -6.233151e+03  -1.071831e+04  -4.428625e+03   1.002681e+00   1.234102e-02  -1.422912e-02   7.442611e-03   9.976251e-01  -2.030960e-03   1.072060e-03   9.375660e-03   1.006961e+00   9.999681e-01   2.459778e-03  -7.597209e-03  -2.502745e-03   9.999809e-01  -5.651260e-03   7.583163e-03   5.670094e-03   9.999552e-01   1.002639e+00   9.976896e-01   1.007036e+00   9.914922e-03  -6.587629e-03   3.643643e-03   2.713312e-03  -2.251941e-03   7.088649e-03   9.904549e-03  -6.601432e-03   3.619593e-03   2.516673e-03   1.534584e-02   2.565190e-03  -2.578780e-03   6.820900e-03   9.945053e-03  -6.516208e-03   3.754865e-03   2.269103e-03   1.538910e-02  -1.027848e-02   4.076249e-02  -6.791122e-02   1.680579e-02  -5.013325e-03  -3.439211e-03   2.712157e-02  -6.794479e-03   4.462457e-02  -1.027848e-02  -5.013325e-03   4.462457e-02   2.878414e-02  -2.039482e-02  -5.116845e-03   1.197835e-02  -4.751640e-02   1.677634e-03   6.217470e+00   8.821018e+04   8.820995e+04   8.821008e+04   1.736404e+00   1.736404e+00   9.732242e-02   6.828944e-02   6.934123e-02  -2.536816e+00   5.033651e+00  -5.754168e+00  -1.754194e+00  -1.020853e-01   6.458788e-01   7.589559e-01   8.262236e-02   7.627957e-01  -6.459885e-01  -2.900838e-02  -3.135702e-02  -8.175988e-02   9.961587e-01  -8.269515e+04  -2.756700e+03   4.089514e+04   6.791188e-01   7.180296e-01   1.524177e-01   1.523776e-01   6.521600e-02  -9.861683e-01  -7.180381e-01   6.929505e-01  -6.512224e-02  -3.828512e-02   1.245938e-02   5.515850e-02  -7.591028e-01   6.340164e-01  -1.476016e-01  -5.210227e-01  -7.276752e-01  -4.461211e-01   3.902541e-01   2.617480e-01  -8.827172e-01
   1.498500e-02   5.015000e-03   4.785373e-03   1.669670e+03   5.871401e-01   3.380026e-01   2.979640e-01   2.731243e-01   2.694492e-02   1.365051e-02  -1.430819e-02  -1.669671e+00  -2.668010e+00  -3.665866e-01  -4.599773e-01  -2.038404e-02  -9.134263e-02   5.259277e+02   6.235519e+03  -1.017135e+03  -3.601752e+04  -8.646817e+03   3.994503e+03   5.258820e+02  -2.999229e+04  -1.398562e+04  -4.204271e+04   6.235480e+03   1.083801e+04  -3.308032e+03  -2.849027e+03  -1.017135e+03   5.259208e+02  -2.999228e+04  -1.398562e+04  -4.204270e+04   6.235542e+03   1.083802e+04  -3.308031e+03  -2.849027e+03  -1.017127e+03   9.998696e-01   8.606196e-03  -1.614894e-04  -3.595858e-03   1.005644e+00   4.663998e-03   6.188339e-03  -1.301563e-02   9.831635e-01   9.999763e-01   6.104828e-03  -3.173186e-03  -6.076337e-03   9.999418e-01   8.912001e-03   3.227408e-03  -8.892509e-03   9.999553e-01   9.998877e-01   1.005754e+00   9.831616e-01   2.453352e-03   2.983244e-03  -4.080049e-03  -1.048174e-04   5.781882e-03  -1.668385e-02   2.454187e-03   2.952955e-03  -4.053778e-03  -3.668928e-03   1.491668e-02  -1.244341e-04   5.564214e-03  -1.721775e-02   2.527529e-03   3.082957e-03  -4.375640e-03  -3.925990e-03   1.530284e-02  -1.854370e-02   1.760093e-02   7.400040e-04  -1.150016e-02  -5.111365e-03  -4.996980e-03  -6.619529e-03  -1.617000e-03   4.416438e-04  -1.854370e-02  -5.111365e-03   4.416438e-04   3.050382e-03  -2.939762e-03  -3.306990e-03   1.455055e-02   3.679766e-03  -1.689990e-03   3.246067e+00   5.513113e+04   5.513111e+04   5.513110e+04   1.725684e+00   1.725684e+00   2.973527e-02   2.068710e-02   2.135955e-02  -1.568089e+00   2.082147e+00  -2.768936e+00  -1.570648e+00  -3.646840e-01   2.899780e-01   9.570333e-01  -1.892421e-04   9.562802e-01  -2.897420e-01   3.971978e-02  -3.795832e-02   1.169883e-02   9.992108e-01  -3.925644e+04  -5.201857e+02   4.552094e+04   7.261192e-01   6.781626e-01   1.133418e-01   8.020994e-02   8.017053e-02  -9.935487e-01   6.828743e-01  -7.305260e-01  -3.817980e-03  -1.945387e-02  -6.486082e-03   2.726532e-03   9.767570e-01  -1.814130e-01   1.141716e-01   1.087361e-01   8.783750e-01   4.654393e-01  -1.847222e-01  -4.422065e-01   8.776851e-01
   1.498500e-02   5.015000e-03   1.429612e-02   1.328467e+03   9.947811e-01   2.765618e-01   2.451667e-01   2.282715e-01   8.983646e-02   9.316142e-03   6.385388e-02  -2.139577e+00  -1.862690e+00   9.252094e-03  -1.115115e+00   1.880968e-02  -1.968833e-01   7.672363e+05   2.944703e+03  -3.335397e+04   1.389019e+05   4.502136e+04   7.386776e+05   7.672364e+05   1.483385e+06   9.611543e+04  -1.205581e+06   2.944782e+03   1.776634e+05  -6.072906e+03   1.299692e+06  -3.335396e+04   7.672363e+05   1.483385e+06   9.611543e+04  -1.205581e+06   2.944726e+03   1.776634e+05  -6.072906e+03   1.299692e+06  -3.335396e+04   1.019109e+00   4.581005e-04   2.171502e-02   6.217927e-03   1.012202e+00   3.147018e-02   3.465415e-02  -3.016961e-02   1.027700e+00   9.999768e-01  -2.317378e-03  -6.403457e-03   2.509578e-03   9.995416e-01   3.017195e-02   6.330602e-03  -3.018732e-02   9.995242e-01   1.019321e+00   1.012648e+00   1.028021e+00   2.807299e-03   2.829945e-02   3.819297e-04   1.991172e-02   1.273182e-02   2.881442e-02   2.857576e-03   2.896986e-02   4.294186e-04   2.048599e-02   3.488100e-02   1.731184e-02   1.244528e-02   2.610245e-02   3.470501e-03   2.627385e-02   7.415041e-04   1.861986e-02   3.164010e-02   1.834834e-02   2.443630e-03  -1.362163e-02   1.404092e-03   1.138410e-02   8.586665e-02  -4.620045e-02   4.684207e-03   2.844806e-04   1.834834e-02   1.138410e-02   2.844806e-04   1.923861e-03  -2.991104e-02   4.527543e-02   5.197690e-04   1.628941e-02   4.059122e-02   3.288658e+00   2.444109e+06   2.444109e+06   2.444109e+06   1.767177e+00   1.767177e+00   1.009422e-01   7.976724e-02   6.185891e-02  -1.331005e+00   3.219563e+00  -3.432750e+00  -6.572215e-01   9.695665e-02   7.360905e-01   6.740470e-01   6.189872e-02   6.554793e-01  -6.870133e-01  -3.136233e-01   1.688716e-01  -2.714285e-01   9.475278e-01  -1.643849e+06   3.720938e+05   2.008582e+06  -3.616369e-01  -7.261959e-01   5.846865e-01  -6.831219e-01  -2.203935e-01  -6.962551e-01   6.344787e-01  -6.512037e-01  -4.163779e-01  -4.859733e-02   1.796456e-02   6.064970e-02  -3.482975e-01   5.718287e-01  -7.427656e-01  -8.249418e-01  -5.632757e-01  -4.681430e-02   4.451516e-01  -5.964331e-01  -6.679129e-01
   1.498500e-02   1.498500e-02   4.785373e-03   1.488625e+03   7.801666e-01   2.205006e-01   2.652201e-01   3.580293e-01  -3.191399e-02   2.739825e-02   1.459385e-02  -3.920225e-01  -1.751385e-01  -5.632436e-01   8.604228e-02  -2.516251e-01  -9.454934e-02  -8.727843e+03  -7.672095e+03  -2.062897e+04   4.876855e+04  -1.053770e+05  -5.365186e+04  -8.727850e+03  -4.419900e+04  -2.046146e+05   1.417361e+05  -7.672111e+03  -2.141026e+03  -6.139484e+03  -1.051627e+05  -2.062905e+04  -8.727799e+03  -4.419901e+04  -2.046145e+05   1.417361e+05  -7.672088e+03  -2.141018e+03  -6.139462e+03  -1.051627e+05  -2.062898e+04   9.840289e-01  -7.205086e-04  -7.546030e-04  -4.057922e-03   9.959885e-01   4.764179e-03  -6.114591e-03   1.849599e-03   9.907195e-01   9.999949e-01   1.676470e-03   2.714443e-03  -1.680451e-03   9.999975e-01   1.465115e-03  -2.711980e-03  -1.469669e-03   9.999952e-01   9.840473e-01   9.959821e-01   9.907197e-01  -2.399231e-03  -3.449417e-03   3.306872e-03  -1.581661e-02  -4.001444e-03  -9.225826e-03  -2.380978e-03  -3.409864e-03   3.289022e-03  -9.681294e-03   9.177438e-03  -1.639801e-02  -4.049727e-03  -9.437163e-03  -2.430495e-03  -3.543186e-03   3.365754e-03  -9.961634e-03   9.530031e-03  -3.414424e-02   1.230217e-02   4.276277e-02  -5.333995e-03  -3.601992e-02  -2.156491e-02  -2.980000e-02  -1.360971e-02  -5.997537e-02  -3.414424e-02  -3.601992e-02  -5.997537e-02   3.484085e-03   6.481386e-03  -1.758731e-02   8.818081e-03   3.628139e-02  -3.977600e-03   8.234203e-01   2.749034e+05   2.749034e+05   2.749033e+05   1.715200e+00   1.715200e+00   9.801565e-02   8.238465e-02   5.310215e-02  -3.768016e-01   5.505483e-01  -6.779561e-01  -4.079216e-01  -4.452698e-02  -4.851732e-01  -1.093842e-01  -8.675494e-01  -7.388758e-01   5.818633e-01   3.398494e-01   4.676210e-01   8.058971e-01  -3.631258e-01  -1.839113e+05  -2.227207e+04   1.691544e+05   5.571865e-01  -7.075036e-01  -4.347205e-01  -5.971947e-01   2.233725e-02  -8.017853e-01   5.769764e-01   7.063567e-01  -4.100713e-01  -7.075518e-02  -3.266572e-02  -2.671863e-02  -1.970464e-01   4.585253e-01   8.665606e-01  -9.803606e-01  -8.484143e-02  -1.780310e-01   8.111446e-03   8.846222e-01  -4.662378e-01
   1.498500e-02   1.498500e-02   1.429612e-02   1.278673e+03   1.072462e+00   1.932769e-01   2.910348e-01   2.849190e-01  -9.030709e-03  -6.671255e-02  -5.062471e-03  -3.627306e-01  -8.494433e-01  -2.293158e-02   1.773874e-01  -7.220433e-02   1.359106e-01   2.119966e+02   1.038876e+01  -2.093178e+03   1.467901e+04  -4.054226e+03   4.596772e+03   2.119572e+02   1.379209e+04  -2.991882e+03   1.556611e+04   1.019038e+01   2.457533e+03  -5.116598e+03   6.735997e+03  -2.093173e+03   2.119853e+02   1.379208e+04  -2.991874e+03   1.556610e+04   1.025619e+01   2.457518e+03  -5.116594e+03   6.735991e+03  -2.093171e+03   1.001820e+00   7.062048e-03  -5.499466e-02  -1.044044e-02   9.907179e-01   1.058144e-02  -1.846816e-02   3.640123e-03   9.531570e-01   9.997864e-01   8.818113e-03  -1.869389e-02  -8.754724e-03   9.999557e-01   3.470013e-03   1.872366e-02  -3.305612e-03   9.998192e-01   1.001352e+00   9.907242e-01   9.540495e-01  -1.544766e-03  -3.722897e-02   6.945252e-03   2.046981e-03  -9.207472e-03  -4.417769e-02  -1.667928e-03  -3.640415e-02   6.782226e-03  -1.711273e-02   5.105673e-02   5.889029e-04  -9.412923e-03  -5.329218e-02  -1.506987e-03  -3.893288e-02   7.664879e-03  -2.070540e-02   5.654760e-02  -1.862720e-02   6.122961e-02  -2.842273e-02   3.004718e-02  -9.848158e-02   7.509767e-02  -3.272470e-02  -2.968360e-02   3.962836e-02  -1.862720e-02  -9.848158e-02   3.962836e-02   4.563840e-02  -3.057372e-02   2.270704e-02   1.559121e-02   2.150986e-03   5.239063e-02   9.865409e-01   2.287991e+04   2.288003e+04   2.288001e+04   1.702153e+00   1.702153e+00   1.570587e-01   1.366838e-01   7.736267e-02  -4.117018e-01   7.856403e-01  -9.054442e-01  -3.161826e-01  -1.347864e-02   2.872762e-01  -9.528789e-01   9.743811e-02   9.542501e-01   2.935211e-01   5.702811e-02   8.294102e-02  -7.659750e-02  -9.936064e-01  -1.950183e+04   1.873373e+03   1.575766e+04  -6.248958e-01   6.485515e-01  -4.346104e-01   3.577539e-01  -2.569182e-01  -8.977779e-01  -6.939145e-01  -7.165012e-01  -7.147475e-02  -1.260022e-01  -4.276133e-03   5.279789e-02  -4.309799e-01   8.798772e-01  -2.001809e-01  -8.182624e-01  -4.745942e-01  -3.243562e-01   3.803983e-01  -2.400946e-02  -9.245110e-01
