     VARIABLES=
              x              y              z      nomin_den    nomin_voidr      fabric_xx      fabric_yy      fabric_zz      fabric_xy      fabric_xz      fabric_yz       sigma_xx       sigma_yy       sigma_zz       sigma_xy       sigma_xz       sigma_yz    sigmaDot_xx    sigmaDot_yy    sigmaDot_zz    sigmaDot_xy    sigmaDot_xz    sigmaDot_yz       Oldro_xx       Oldro_xy       Oldro_xz       Oldro_yx       Oldro_yy       Oldro_yz       Oldro_zx       Oldro_zy       Oldro_zz       Trues_xx       Trues_xy       Trues_xz       Trues_yx       Trues_yy       Trues_yz       Trues_zx       Trues_zy       Trues_zz           F_xX           F_xY           F_xZ           F_yX           F_yY           F_yZ           F_zX           F_zY           F_zZ           R_xX           R_xY           R_xZ           R_yX           R_yY           R_yZ           R_zX           R_zY           R_zZ           U_xX           U_yY           U_zZ           U_xY           U_xZ           U_yZ       Green_xx       Green_yy       Green_zz       Green_xy       Green_xz       Green_yz      Green_vol      Green_shr       Euler_xx       Euler_yy       Euler_zz       Euler_xy       Euler_xz       Euler_yz      Euler_vol      Euler_shr           l_xx           l_xy           l_xz           l_yx           l_yy           l_yz           l_zx           l_zy           l_zz           d_xx           d_yy           d_zz           d_xy           d_xz           d_yz           w_xy           w_xz           w_yz     norm_sigma  norm_sigmaDot     norm_Oldro     norm_Trues         norm_F         norm_U         norm_l         norm_d         norm_w              p              q        sigma_1        sigma_2        sigma_3     sigma_1_v1     sigma_1_v2     sigma_1_v3     sigma_2_v1     sigma_2_v2     sigma_2_v3     sigma_3_v1     sigma_3_v2     sigma_3_v3     sigmaDot_1     sigmaDot_2     sigmaDot_3  sigmaDot_1_v1  sigmaDot_1_v2  sigmaDot_1_v3  sigmaDot_2_v1  sigmaDot_2_v2  sigmaDot_2_v3  sigmaDot_3_v1  sigmaDot_3_v2  sigmaDot_3_v3            d_1            d_2            d_3         d_1_v1         d_1_v2         d_1_v3         d_2_v1         d_2_v2         d_2_v3         d_3_v1         d_3_v2         d_3_v3
ZONE I=2, J=2, K=2, DATAPACKING=POINT, STRANDID=5, SOLUTIONTIME=30
   5.074936e-03   5.074938e-03   4.845329e-03   1.579153e+03   6.781150e-01   3.428102e-01   3.246878e-01   3.175766e-01  -3.942904e-02  -3.248321e-02   3.350125e-03  -1.349043e+02  -9.654743e+01  -1.055222e+02   8.854291e+00   3.633567e+01   6.417250e+00   8.647550e+04   7.016927e+04  -1.303315e+05  -3.379058e+05  -3.500474e+05   4.939625e+05   8.647667e+04   1.446368e+05  -5.830323e+05  -8.204400e+05   7.016603e+04   5.837532e+03  -1.170570e+05   9.820866e+05  -1.303313e+05   8.647664e+04   1.446369e+05  -5.830323e+05  -8.204400e+05   7.016601e+04   5.837534e+03  -1.170570e+05   9.820866e+05  -1.303313e+05   1.033588e+00  -1.393903e-02   1.788027e-03   1.965837e-02   9.915997e-01   6.736068e-03   2.369453e-03  -2.422779e-02   1.014252e+00   9.998626e-01  -1.656843e-02  -5.038872e-04   1.657423e-02   9.997438e-01   1.541305e-02   2.483882e-04  -1.541928e-02   9.998811e-01   1.033773e+00   9.919502e-01   1.014234e+00   2.491863e-03   2.151355e-03  -8.934312e-03   3.434854e-02  -7.974403e-03   1.437749e-02   2.514302e-03   2.191863e-03  -8.959257e-03   1.358388e-02   2.682473e-02   3.202706e-02  -8.452750e-03   1.408161e-02   3.133757e-03   2.143719e-03  -8.483592e-03   1.255197e-02   2.576292e-02   9.891619e-03   7.166902e-04   2.047828e-02   2.605651e-02  -1.576246e-02  -2.064269e-02   1.062196e-02   2.814739e-02   6.055401e-03   9.891619e-03  -1.576246e-02   6.055401e-03   1.338660e-02   1.555012e-02   3.752347e-03  -1.266991e-02   4.928157e-03  -2.439504e-02   2.038482e+02   1.428845e+06   1.428841e+06   1.428841e+06   1.755421e+00   1.755421e+00   5.303777e-02   3.539975e-02   3.949510e-02  -1.123247e+02   7.121992e+01  -1.578886e+02  -1.011059e+02  -7.797951e+01  -8.383162e-01   9.701003e-02   5.364839e-01  -1.820926e-01   8.777072e-01  -4.432521e-01  -5.138757e-01  -4.692752e-01  -7.181313e-01  -1.215043e+06  -1.159446e+05   1.357301e+06  -3.898024e-01  -7.032043e-01   5.946072e-01  -7.728513e-01  -1.012970e-01  -6.264502e-01   5.007544e-01  -7.037348e-01  -5.039865e-01  -2.180720e-02  -5.371301e-03   2.736306e-02  -4.370129e-01   8.908780e-01   1.239195e-01  -4.968528e-01  -3.539452e-01   7.923762e-01   7.497713e-01   2.847089e-01   5.973139e-01
   5.074936e-03   5.074938e-03   1.423617e-02   1.480957e+03   7.893836e-01   3.124879e-01   3.765563e-01   2.948268e-01  -2.782051e-02  -2.765868e-02   2.851531e-02  -4.509311e+01  -3.492090e+01  -5.183871e+01   7.551252e+00   1.136395e+01  -3.705605e+00   5.469638e+04  -2.630953e+05  -3.275119e+04   2.788985e+04   5.393042e+05  -4.100893e+05   5.469773e+04   1.483846e+05   1.017835e+06  -9.260450e+04  -2.630951e+05  -1.147300e+06   6.076833e+04   3.271207e+05  -3.275310e+04   5.469817e+04   1.483846e+05   1.017835e+06  -9.260457e+04  -2.630947e+05  -1.147300e+06   6.076823e+04   3.271208e+05  -3.275260e+04   8.394351e-01   1.553791e-01  -2.049729e-01   3.788057e-02   8.642963e-01  -4.643681e-02   7.033760e-02  -1.392528e-01   1.101713e+00   9.884498e-01   6.205761e-02  -1.382599e-01  -5.482036e-02   9.969495e-01   5.555571e-02   1.412858e-01  -4.733457e-02   9.888366e-01   8.376006e-01   8.778937e-01   1.115173e+00   8.652896e-02  -4.440337e-02  -1.111644e-01  -1.444832e-01  -1.047290e-01   1.289704e-01   7.668800e-02  -4.816434e-02  -1.127001e-01  -4.008058e-02   2.386935e-01  -2.029920e-01  -2.170635e-01   7.255390e-02   1.448499e-01  -8.722629e-02  -7.574879e-02  -1.158339e-01   2.851778e-01   3.240901e-03  -1.938177e-03  -4.545275e-02   9.414401e-03   6.064323e-03  -9.222820e-03  -8.245081e-04   5.753930e-03  -1.905759e-02   3.240901e-03   6.064323e-03  -1.905759e-02   3.738112e-03  -2.313863e-02  -1.734445e-03  -5.676289e-03  -2.231412e-02  -7.488375e-03   7.965101e+01   1.602145e+06   1.602144e+06   1.602144e+06   1.661179e+00   1.661179e+00   5.184264e-02   3.892592e-02   3.424079e-02  -4.395091e+01   2.681064e+01  -6.110803e+01  -3.971149e+01  -3.103319e+01  -5.943112e-01   2.786992e-01   7.544011e-01  -6.293497e-01   4.228492e-01  -6.520104e-01   5.007127e-01   8.622791e-01   7.590473e-02  -5.161915e+05   7.603957e+04   1.990018e+05   1.903609e-01   8.017966e-01  -5.664670e-01   9.812268e-01  -1.372168e-01   1.355194e-01  -3.093020e-02   5.816302e-01   8.128651e-01  -3.359987e-02   4.784992e-03   1.906251e-02  -5.327824e-01   1.321093e-02  -8.461492e-01   2.472784e-01  -9.538091e-01  -1.705920e-01  -8.093184e-01  -3.001229e-01   5.049059e-01
   5.074936e-03   1.492503e-02   4.845329e-03   1.510687e+03   7.541688e-01   3.357661e-01   3.444796e-01   3.041294e-01   1.337357e-02  -1.834676e-02  -4.029839e-03  -1.446057e+02  -1.775490e+02  -7.984769e+01  -9.446515e+00   2.764337e+01  -2.969382e+01   4.853953e+04   8.699599e+04   2.084181e+04  -3.790999e+04  -1.765039e+05   3.750442e+04   4.854583e+04  -1.518174e+05  -3.818572e+05   7.600376e+04   8.698408e+04  -3.457626e+04   2.885496e+04   1.095825e+05   2.083962e+04   4.854867e+04  -1.518172e+05  -3.818577e+05   7.600396e+04   8.698757e+04  -3.457566e+04   2.885440e+04   1.095831e+05   2.084119e+04   1.025290e+00   1.010271e-02   1.562404e-02   4.298727e-02   9.864301e-01   4.492217e-02   3.313783e-02   6.279354e-03   1.018880e+00   9.998349e-01  -1.591608e-02  -8.766903e-03   1.608134e-02   9.996880e-01   1.911407e-02   8.459946e-03  -1.925190e-02   9.997789e-01   1.026092e+00   9.858407e-01   1.019377e+00   2.601729e-02   2.496354e-02   2.504409e-02   2.708286e-02  -1.340705e-02   2.018945e-02   2.648512e-02   2.585686e-02   2.543417e-02   1.128842e-02   5.757563e-02   2.215749e-02  -1.462943e-02   1.654983e-02   2.559276e-02   2.165577e-02   2.520745e-02   8.025960e-03   5.356851e-02   2.332902e-02   1.211018e-02   1.220127e-02   8.257536e-03  -3.642782e-02   1.471770e-02   1.408726e-02  -6.095906e-03  -6.530901e-03   2.332902e-02  -3.642782e-02  -6.530901e-03   1.018386e-02   1.314426e-02   4.310895e-03   1.926322e-03  -9.429983e-04   1.040680e-02   2.495656e+02   4.461367e+05   4.461319e+05   4.461334e+05   1.751494e+00   1.751494e+00   5.224766e-02   5.004013e-02   1.502674e-02  -1.340008e+02   1.126158e+02  -1.857339e+02  -1.552533e+02  -6.101518e+01   6.788898e-02   9.664341e-01   2.477826e-01  -9.385706e-01  -2.235886e-02   3.443622e-01   3.383435e-01  -2.559398e-01   9.055487e-01  -6.609102e+04   1.511195e+04   2.073564e+05  -2.419325e-01   6.413233e-01  -7.281299e-01  -8.618960e-01   2.026216e-01   4.648438e-01   4.456500e-01   7.400330e-01   5.037332e-01  -3.826944e-02  -1.148572e-02   3.012546e-02  -1.475218e-01   9.863701e-01  -7.287901e-02  -3.571575e-01   1.558668e-02   9.339141e-01   9.223209e-01   1.638019e-01   3.499901e-01
   5.074936e-03   1.492503e-02   1.423617e-02   1.588416e+03   6.683290e-01   2.991488e-01   3.142906e-01   3.865607e-01   6.050012e-02  -4.164258e-02   7.668547e-03  -4.105042e+01  -4.522606e+01  -4.491261e+01  -1.290946e+01   1.317702e+01  -6.720669e+00  -2.563119e+05   2.948148e+04  -3.087702e+05  -1.743985e+05  -2.060199e+06   1.895155e+06  -2.563107e+05   1.036137e+05  -4.206196e+06  -4.524097e+05   2.947896e+04   2.051084e+04   8.580026e+04   3.769801e+06  -3.087706e+05  -2.563098e+05   1.036140e+05  -4.206196e+06  -4.524093e+05   2.947992e+04   2.051102e+04   8.579998e+04   3.769801e+06  -3.087697e+05   1.039404e+00   8.934561e-02  -1.663655e-01   4.500276e-02   9.293624e-01  -2.730748e-03   1.401887e-01  -2.900014e-02   1.154317e+00   9.901090e-01   2.223337e-02  -1.385275e-01  -1.989216e-02   9.996353e-01   1.826251e-02   1.388830e-01  -1.532626e-02   9.901902e-01   1.047698e+00   9.314544e-01   1.165989e+00   6.594724e-02  -4.350705e-03  -2.411998e-02   5.101936e-02  -6.373091e-02   1.800661e-01   6.531228e-02  -5.610873e-03  -2.543861e-02   5.578484e-02   1.625652e-01   4.333749e-02  -8.802757e-02   1.297427e-01   6.829101e-02  -1.531000e-02  -7.872832e-03   2.835089e-02   1.504857e-01   6.575753e-03   3.586036e-02   8.455416e-03   1.630715e-03  -3.713466e-02   5.910165e-02   3.112273e-02  -3.522232e-02   9.188259e-03   6.575753e-03  -3.713466e-02   9.188259e-03   1.874554e-02   1.978907e-02   1.193966e-02   1.711482e-02  -1.133366e-02   4.716198e-02   8.086649e+01   5.682304e+06   5.682304e+06   5.682304e+06   1.826119e+00   1.826119e+00   9.256893e-02   5.725176e-02   7.274094e-02  -4.372970e+01   3.720349e+01  -6.113155e+01  -5.033394e+01  -1.972360e+01   7.151068e-01   5.802705e-01  -3.897542e-01   7.040084e-02  -6.145280e-01  -7.857474e-01   6.954609e-01  -5.344543e-01   4.803047e-01  -3.951324e+06  -2.366460e+05   3.652369e+06   1.011356e-01   6.901115e-01  -7.166015e-01  -9.925011e-01   2.028274e-02  -1.205410e-01  -6.865207e-02   7.234188e-01   6.869877e-01  -4.449088e-02  -1.114509e-02   3.426532e-02  -3.099653e-01   9.458768e-01  -9.611786e-02  -6.656814e-01  -1.437340e-01   7.322628e-01   6.788150e-01   2.909600e-01   6.742051e-01
   1.492502e-02   5.074938e-03   4.845329e-03   1.615456e+03   6.404038e-01   4.120299e-01   3.373602e-01   2.397403e-01  -1.990488e-02   1.718434e-02   1.325984e-02  -2.596205e+02  -1.882174e+02  -1.080658e+02   1.976290e+01  -3.493827e+01   3.599195e+01  -5.014826e+04  -7.535316e+04  -1.358595e+05  -4.913305e+04  -1.985337e+05   1.766057e+05  -5.013802e+04  -9.351218e+04  -1.142391e+05  -4.741742e+03  -7.535852e+04   1.667988e+05  -2.828330e+05   1.864072e+05  -1.358639e+05  -5.013340e+04  -9.351252e+04  -1.142385e+05  -4.742111e+03  -7.535517e+04   1.667981e+05  -2.828324e+05   1.864066e+05  -1.358619e+05   9.467401e-01  -2.744645e-02  -2.511023e-02   3.192448e-02   1.052061e+00   1.358923e-02  -3.879357e-02  -1.907506e-02   9.289330e-01   9.995254e-01  -3.000734e-02   6.972613e-03   2.988479e-02   9.994077e-01   1.706161e-02  -7.480457e-03  -1.684514e-02   9.998301e-01   9.475350e-01   1.052583e+00   9.288320e-01   4.149906e-03  -3.164104e-02  -1.313333e-03  -5.057955e-02   5.397516e-02  -6.813412e-02   4.170929e-03  -2.968783e-02  -1.366783e-03  -2.157950e-02   8.373811e-02  -5.953283e-02   4.871595e-02  -8.087476e-02   2.070023e-04  -3.851472e-02  -4.516993e-03  -3.056388e-02   9.188157e-02   1.975287e-02  -1.089340e-03  -8.498236e-04   2.629481e-02  -1.393450e-02  -1.285979e-02  -9.648691e-03  -1.988952e-02  -2.360644e-02   1.975287e-02  -1.393450e-02  -2.360644e-02   1.260273e-02  -5.249258e-03  -1.637465e-02  -1.369207e-02   4.399434e-03   3.514867e-03   3.468851e+02   4.370739e+05   4.370735e+05   4.370708e+05   1.694262e+00   1.694262e+00   4.988988e-02   4.528395e-02   2.093715e-02  -1.853012e+02   1.600889e+02  -2.757915e+02  -1.890607e+02  -9.105152e+01   9.151634e-01  -3.177614e-01   2.479994e-01   3.758457e-01   8.950256e-01  -2.401443e-01   1.456572e-01  -3.129808e-01  -9.385239e-01  -4.359873e+05  -7.213503e+04   2.467614e+05   5.438939e-01  -3.796609e-01   7.483562e-01   5.456277e-01   8.375478e-01   2.835632e-02  -6.375499e-01   3.929010e-01   6.626907e-01  -3.606425e-02  -7.935242e-03   2.621141e-02   6.568838e-02  -6.174306e-01  -7.838779e-01  -4.257602e-01   6.931322e-01  -5.816321e-01   9.024485e-01   3.719505e-01  -2.173467e-01
   1.492502e-02   5.074938e-03   1.423617e-02   1.448560e+03   8.294028e-01   3.318715e-01   2.700388e-01   3.564231e-01   3.287137e-02  -2.121808e-03   2.511462e-02  -7.377027e+00  -5.497648e+00  -8.578755e+00  -1.465985e+00  -1.921128e+00  -3.999076e-01  -4.217925e+04  -1.218199e+04   1.828822e+04  -2.729706e+04   3.203321e+02  -5.167722e+03  -4.217983e+04  -2.538263e+04  -1.284019e+04  -2.921190e+04  -1.218175e+04  -9.187931e+02   1.348086e+04  -9.415942e+03   1.828840e+04  -4.217981e+04  -2.538263e+04  -1.284019e+04  -2.921190e+04  -1.218173e+04  -9.187923e+02   1.348087e+04  -9.415941e+03   1.828842e+04   1.120281e+00  -3.596896e-02  -2.270737e-02  -9.179093e-02   8.305554e-01  -2.874459e-02  -1.498021e-01   2.161276e-01   9.422414e-01   9.979569e-01   3.542551e-02   5.317036e-02  -2.785272e-02   9.901854e-01  -1.369564e-01  -5.750026e-02   1.351956e-01   9.891491e-01   1.129163e+00   8.503491e-01   9.347466e-01  -7.145609e-02  -7.603949e-02   9.812003e-02   1.429481e-01  -1.310865e-01  -5.541960e-02  -7.445458e-02  -8.197494e-02   9.029356e-02  -1.451933e-02   2.322202e-01   8.402814e-02  -2.548904e-01  -5.852830e-02  -6.072880e-02  -7.508165e-02   1.185812e-01  -7.646354e-02   2.641829e-01  -3.579867e-02   1.360908e-02  -2.502251e-02  -4.069995e-02   3.170870e-02   1.565361e-02   2.881029e-02   4.419764e-02   1.686453e-03  -3.579867e-02   3.170870e-02   1.686453e-03  -1.354543e-02   1.893890e-03   2.992563e-02   2.715452e-02  -2.691640e-02  -1.427201e-02   1.311383e+01   6.477388e+04   6.477438e+04   6.477437e+04   1.706717e+00   1.706717e+00   8.823916e-02   6.674614e-02   5.771570e-02  -7.151143e+00   6.237534e+00  -1.118947e+01  -5.990968e+00  -4.272989e+00  -6.385151e-01  -2.255108e-01  -7.358284e-01  -4.067107e-01  -7.128178e-01   5.713819e-01  -6.533643e-01   6.641052e-01   3.634273e-01  -6.059471e+04  -4.125438e+03   2.864714e+04  -8.603593e-01  -5.021930e-01   8.708639e-02  -3.814263e-01   7.477172e-01   5.435375e-01   3.380768e-01  -4.344205e-01   8.348550e-01  -4.026701e-02  -1.360127e-02   5.146476e-02  -9.318575e-01  -2.741732e-01   2.376357e-01   3.419327e-01  -4.445818e-01   8.279064e-01   1.213412e-01  -8.527462e-01  -5.080357e-01
   1.492502e-02   1.492503e-02   4.845329e-03   1.548218e+03   7.116452e-01   3.280758e-01   3.679246e-01   3.039996e-01   3.175959e-03  -2.010521e-02   4.167618e-02  -5.767962e+01  -4.554558e+01  -1.806956e+01   1.251036e+01   6.374094e+00  -5.978365e+00  -4.963768e+04  -5.623826e+04   5.505561e+02   1.901875e+05  -1.003671e+05  -2.526707e+04  -4.964045e+04   1.255584e+04  -1.672007e+05   3.678210e+05  -5.624270e+04  -9.532262e+04  -3.354020e+04   4.479447e+04   5.503566e+02  -4.963366e+04   1.255437e+04  -1.672014e+05   3.678195e+05  -5.623734e+04  -9.532209e+04  -3.354100e+04   4.479534e+04   5.524845e+02   1.127683e+00   6.471923e-03  -9.902316e-02   1.469666e-02   7.695885e-01   5.246674e-02  -1.771152e-01  -1.315013e-01   9.232827e-01   9.992454e-01  -1.343989e-02   3.644143e-02   9.399813e-03   9.940136e-01   1.088516e-01  -3.768623e-02  -1.084270e-01   9.933898e-01   1.133645e+00   7.791527e-01   9.192821e-01   1.865682e-02  -1.332503e-01  -4.662521e-02   1.516273e-01  -1.951995e-01  -6.749540e-02   2.094977e-02  -1.372115e-01  -4.083796e-02  -3.702255e-02   2.625574e-01   7.872976e-02  -3.448348e-01  -1.023404e-01  -1.126130e-03  -1.365825e-01  -5.227049e-02  -1.228152e-01   2.978912e-01  -2.404199e-02  -2.463651e-02   4.837955e-02   1.792931e-02  -4.753561e-02   2.838901e-02  -6.790218e-02   5.050823e-02  -4.618439e-02  -2.404199e-02  -4.753561e-02  -4.618439e-02  -3.353598e-03  -9.761316e-03   3.944862e-02  -2.128291e-02   5.814086e-02  -1.105961e-02   7.872832e+01   4.257337e+05   4.257366e+05   4.257341e+05   1.666693e+00   1.666693e+00   1.273082e-01   9.108291e-02   8.894534e-02  -4.043159e+01   4.482020e+01  -6.743069e+01  -3.801821e+01  -1.584587e+01   8.219718e-01  -5.356051e-01  -1.936221e-01   5.611208e-01   8.198005e-01   1.143266e-01  -9.749765e-02   2.026186e-01  -9.743921e-01  -4.279426e+05   7.528672e+03   3.150885e+05   6.971638e-01  -7.053388e-01   1.282959e-01  -1.079694e-01   7.361482e-02   9.914250e-01  -7.087350e-01  -7.050376e-01  -2.483345e-02  -8.663659e-02  -2.792801e-02  -3.197384e-03   7.218841e-02  -7.053012e-01   7.052227e-01  -9.084515e-01  -3.383636e-01  -2.454098e-01   4.117095e-01  -6.229449e-01  -6.651579e-01
   1.492502e-02   1.492503e-02   1.423617e-02   1.361808e+03   9.459420e-01   3.414214e-01   3.135778e-01   3.105180e-01   3.821398e-03  -6.674991e-02  -5.057564e-03  -1.292252e+00  -1.745057e+00  -5.574794e-01  -1.434372e-01   3.422757e-01   1.752399e-01   1.098866e+04   6.883493e+03  -1.511943e+03   1.601391e+04  -8.387492e+03  -1.387643e+03   1.098857e+04   3.002243e+04  -2.272241e+04   2.005260e+03   6.883254e+03  -2.396670e+03   5.947553e+03  -3.784623e+02  -1.512036e+03   1.098878e+04   3.002246e+04  -2.272247e+04   2.005278e+03   6.883543e+03  -2.396694e+03   5.947495e+03  -3.784968e+02  -1.511943e+03   7.427520e-01  -3.797447e-02   1.166048e+00   7.557293e-01   9.751867e-01  -1.822717e+00   9.232835e-01  -5.694011e-01   2.248437e+00   1.875433e-01   7.728534e-01   6.062385e-01   7.141710e-01   3.164506e-01  -6.243547e-01   6.743792e-01  -5.500515e-01   4.926013e-01   1.301661e+00   5.924496e-01   2.952508e+00   3.053359e-01   4.332524e-01  -9.123717e-01   4.876299e-01   1.383244e-01   4.368718e+00   9.152646e-02   7.822746e-01  -1.551016e+00   1.664891e+00   3.374314e+00  -2.223889e+01  -8.092564e-01  -9.980471e+00   4.989870e+00   1.531427e+01  -3.496602e+00  -1.100954e+01   2.272307e+01  -3.346603e-02  -5.680430e-03   9.762128e-03  -1.794389e-02  -6.411613e-02   2.773802e-02   1.488392e-02   1.696694e-02  -6.812822e-02  -3.346603e-02  -6.411613e-02  -6.812822e-02  -1.181216e-02   1.232303e-02   2.235248e-02   6.131730e-03  -2.560899e-03   5.385538e-03   2.316746e+00   4.041487e+04   4.041473e+04   4.041488e+04   3.604073e+00   3.604073e+00   1.077064e-01   1.070250e-01   1.209631e-02  -1.198263e+00   1.267912e+00  -1.840152e+00  -1.353607e+00  -4.010299e-01   3.347889e-01   9.114763e-01  -2.390133e-01  -8.753616e-01   3.947278e-01   2.791630e-01   3.487957e-01   1.157624e-01   9.300219e-01  -4.001522e+03   6.562766e+03   1.379897e+04   3.786082e-01  -1.017426e-01  -9.199480e-01   1.890819e-01  -9.644757e-01   1.844846e-01  -9.060374e-01  -2.437929e-01  -3.459208e-01  -9.342202e-02  -4.368955e-02  -2.859881e-02   2.737692e-01   6.506188e-01  -7.083400e-01  -2.408268e-02  -7.316087e-01  -6.812993e-01  -9.614939e-01   2.035775e-01  -1.846233e-01
